H  Si H  C  N  O 
 1.0000000000000000
    16.4486325482347304    0.0000000000000000    0.0000000000000000
     0.0000000000000009   16.4486325482347304    0.0000000000000000
     0.0000000000000000    0.0000000000000000   45.0779131692151651
 H   Si  H   C   N   O  
  36 216  13   5   1   2
Selective dynamics
Cartesian
  3.5953974755424922  1.8874800405357530  0.5000000000000024   F   F   F
 11.8197137496598597 10.1117963146531213  0.5000000000000024   F   F   F
 12.8532350726922378  3.5953974755424922  0.5000000000000039   F   F   F
  1.8874800405357544  9.0782749916207255  0.5000000000000000   F   F   F
  7.3703575566139987 14.5611525076989778  0.5000000000000008   F   F   F
  7.3703575566139925  9.0782749916207273  0.5000000000000024   F   F   F
 11.8197137496598597 15.5946738307313595  0.5000000000000031   F   F   F
  3.5953974755424931 12.8532350726922378  0.5000000000000038   F   F   F
  7.3703575566139916  3.5953974755424927  0.5000000000000048   F   F   F
 15.5946738307313595 11.8197137496598597  0.5000000000000034   F   F   F
 14.5611525076989796  7.3703575566139916  0.5000000000000033   F   F   F
 15.5946738307313613  0.8539587175033697  0.5000000000000024   F   F   F
 10.1117963146531213  6.3368362335816162  0.5000000000000024   F   F   F
  0.8539587175033699  4.6289187985748779  0.5000000000000016   F   F   F
  4.6289187985748779  6.3368362335816153  0.5000000000000024   F   F   F
  1.8874800405357550 14.5611525076989778  0.5000000000000011   F   F   F
 10.1117963146531213  0.8539587175033699  0.5000000000000018   F   F   F
  9.0782749916207433 12.8532350726922378  0.5000000000000042   F   F   F
  0.8539587175033705 10.1117963146531213  0.5000000000000016   F   F   F
  9.0782749916207273  1.8874800405357539  0.5000000000000002   F   F   F
 12.8532350726922378  9.0782749916207255  0.5000000000000016   F   F   F
  6.3368362335816171 10.1117963146531213  0.5000000000000027   F   F   F
  1.8874800405357530  3.5953974755424922  0.5000000000000024   F   F   F
  4.6289187985748779  0.8539587175033697  0.5000000000000016   F   F   F
 14.5611525076989778  1.8874800405357544  0.5000000000000010   F   F   F
  0.8539587175033706 15.5946738307313613  0.5000000000000024   F   F   F
  6.3368362335816171 15.5946738307313613  0.5000000000000034   F   F   F
  9.0782749916207273  7.3703575566139916  0.5000000000000024   F   F   F
  4.6289187985748788 11.8197137496598597  0.5000000000000023   F   F   F
 11.8197137496598597  4.6289187985748779  0.5000000000000024   F   F   F
 12.8532350726922395 14.5611525076989778  0.5000000000000024   F   F   F
 14.5611525076989778 12.8532350726922395  0.5000000000000024   F   F   F
  6.3368362335816153  4.6289187985748779  0.5000000000000024   F   F   F
 10.1117963146531213 11.8197137496598597  0.5000000000000024   F   F   F
 15.5946738307313613  6.3368362335816162  0.5000000000000034   F   F   F
  3.5953974755424936  7.3703575566139898  0.5000000000000049   F   F   F
  4.1121581370586826  1.3707193790195613  5.4661181370586824   F   F   F
  2.7414387580391226  2.7414387580391226  1.3539600000000025   F   F   F
  1.3707193790195615  4.1121581370586826  5.4661181370586860   F   F   F
  0.0000000000000000  0.0000000000000000  1.3539600000000025   F   F   F
  4.1121581370586826  4.1121581370586826  2.7246793790195625   F   F   F
  2.7414387580391226  0.0000000000000002  4.0953987580391233   F   F   F
  1.3707193790195613  1.3707193790195613  2.7246793790195625   F   F   F
  0.0000000000000002  2.7414387580391226  4.0953987580391233   F   F   F
  4.0951604653579308  1.3741207216752562 11.0256072568823100   T   T   T
  2.7393921081337247  2.7378822455073495  6.8586240472594904   T   T   T
  1.3797946821787168  4.0794798042070868 11.0502325407969586   T   T   T
  0.0002753209759958 -0.0011983627959264  6.8587650516064684   T   T   T
  4.1110475453003446  4.1051479593716902  8.2481124645636594   T   T   T
  2.7371317190020625 -0.0066060852916750  9.6385505670059182   T   T   T
  1.3696569774398872  1.3664098952078556  8.2509449848062513   T   T   T
  5.4800918888634635  2.7328771610414848  9.6367639153410920   T   T   T
  2.0010056695215512  3.4629515435736464 16.0818731692151680   T   T   T
  2.7289165524330654  2.7077321424362637 12.4673285247034524   T   T   T
  3.6756603976671607  1.8166483897269363 16.7818731692151708   T   T   T
  5.4753723843656914 -0.0117921382306731 12.3686280680244547   T   T   T
  4.1197420002000600  4.1266159921115690 13.8420831603202981   T   T   T
  2.7635052503999535 -0.0345897426042479 15.3977589777040844   T   T   T
  1.3591507583901759  1.3043754194134680 13.9205929220856781   T   T   T
  5.4040592200541449  2.6772467841832666 15.2277083060668126   T   T   T
  4.1121581370586826  6.8535968950978043  5.4661181370586824   F   F   F
  2.7414387580391231  8.2243162741173581  1.3539600000000025   F   F   F
  1.3707193790195618  9.5950356531369252  5.4661181370586860   F   F   F
  0.0000000000000003  5.4828775160782453  1.3539600000000025   F   F   F
  4.1121581370586826  9.5950356531369252  2.7246793790195625   F   F   F
  2.7414387580391231  5.4828775160782453  4.0953987580391233   F   F   F
  1.3707193790195618  6.8535968950978043  2.7246793790195625   F   F   F
  0.0000000000000005  8.2243162741173581  4.0953987580391233   F   F   F
  4.1104226560403232  6.8310172565081801 11.0212386385854710   T   T   T
  2.7377795821293449  8.2178866544988693  6.8597009481751456   T   T   T
  1.3823124919497971  9.5704166655388310 11.0102093580246390   T   T   T
 -0.0020659505919042  5.4770653602447430  6.8604973395291022   T   T   T
  4.1134655938563034  9.5861456109843601  8.2459499950562716   T   T   T
  2.7343810823472503  5.4603257019680820  9.6456970350393085   T   T   T
  1.3714400435764089  6.8398348418637678  8.2517464418252029   T   T   T
  5.4804086245830996  8.2058573282026011  9.6314165745763418   T   T   T
  1.9471937883445189  8.9550115298090827 16.0818731692151680   T   T   T
  2.7375269180988386  8.1904536406373651 12.4104357855671381   T   T   T
  3.6415748314553800  7.3025687429874413 16.7818731692151708   T   T   T
  5.4847353685795941  5.4602166098809661 12.4053487148692678   T   T   T
  4.1730250911510538  9.5597628664856060 13.7731674937103765   T   T   T
  2.7801938506063979  5.5432306724670086 15.2606099678471381   T   T   T
  1.3439739456598843  6.8214325163045295 13.8454477825429336   T   T   T
  5.4379628638221931  8.1717493544634028 15.2855942267810381   T   T   T
  4.1121581370586835 12.3364744111760647  5.4661181370586824   F   F   F
  2.7414387580391235 13.7071937901956087  1.3539600000000025   F   F   F
  1.3707193790195622 15.0779131692151687  5.4661181370586860   F   F   F
  0.0000000000000006 10.9657550321564905  1.3539600000000025   F   F   F
  4.1121581370586835 15.0779131692151687  2.7246793790195625   F   F   F
  2.7414387580391231 10.9657550321564905  4.0953987580391233   F   F   F
  1.3707193790195620 12.3364744111760647  2.7246793790195625   F   F   F
  0.0000000000000008 13.7071937901956087  4.0953987580391233   F   F   F
  4.1138496339799016 12.3335011672368875 11.0174148389257986   T   T   T
  2.7409571856011650 13.7057532567025131  6.8603026240922906   T   T   T
  1.3634168827655735 15.0763866562388582 11.0308311497889182   T   T   T
 -0.0014213558213777 10.9628004889721815  6.8614488418581612   T   T   T
  4.1136411711397383 15.0747746066178649  8.2500234922698432   T   T   T
  2.7434632635513703 10.9583076043056806  9.6331975136254382   T   T   T
  1.3691629870591904 12.3332577611759380  8.2504793032842620   T   T   T
  5.4892243658750068 13.7019507155339788  9.6349934081927451   T   T   T
  1.8934872122062107 14.5503172652402917 16.7818731692151708   T   T   T
  2.7453405971715470 13.7154055502812433 12.4028003777318307   T   T   T
  3.5600273356938046 12.8679377940723363 16.0818731692151680   T   T   T
  5.5023056019554621 10.9348512117843502 12.3627253101402363   T   T   T
  4.1067182309903751 15.1280633627439247 13.8166701835132031   T   T   T
  2.7438043524074955 10.9181416807220000 15.0558997130693424   T   T   T
  1.3480631906301048 12.3161045262179289 13.7656670576697806   T   T   T
  5.4980782592084374 13.6871458979371212 15.0533952885157625   T   T   T
  9.5950356531369252  1.3707193790195613  5.4661181370586824   F   F   F
  8.2243162741173581  2.7414387580391226  1.3539600000000025   F   F   F
  6.8535968950978043  4.1121581370586826  5.4661181370586860   F   F   F
  5.4828775160782453  0.0000000000000000  1.3539600000000025   F   F   F
  9.5950356531369252  4.1121581370586826  2.7246793790195625   F   F   F
  8.2243162741173581  0.0000000000000002  4.0953987580391233   F   F   F
  6.8535968950978043  1.3707193790195613  2.7246793790195625   F   F   F
  5.4828775160782453  2.7414387580391226  4.0953987580391233   F   F   F
  9.6035906181978117  1.3600821865511683 11.0335507821872003   T   T   T
  8.2247740859048299  2.7391137151018130  6.8604034899307047   T   T   T
  6.8571277308056926  4.1007632966208263 11.0194253782241756   T   T   T
  5.4830773141891100 -0.0017846698038883  6.8597896806644201   T   T   T
  9.5998077941107240  4.1055197359836422  8.2519998287461309   T   T   T
  8.2316507989604037 -0.0063332784278338  9.6396917324954572   T   T   T
  6.8561839235200823  1.3644253620356659  8.2505641957941940   T   T   T
 10.9721006421664082  2.7330050311220253  9.6449902530299791   T   T   T
  9.1447612967353997  1.8285780062731547 16.3452323420240511   T   T   T
  8.2255750622192512  2.7392139694141546 12.4047861817385936   T   T   T
  9.1074980374782744  7.3072277291963870 16.7818731692151708   T   T   T
 10.9918830712474431 -0.0290680845080401 12.3997634163108952   T   T   T
  9.6134777642869924  4.1549549018788383 13.7943104132673469   T   T   T
  8.2596391916845064  0.0067406196179854 15.0922073466689852   T   T   T
  6.8111328619284413  1.3481812871086292 13.7871102061981183   T   T   T
 10.9689667362022032  2.7154175523408153 15.1005846049234655   T   T   T
  9.5950356531369252  6.8535968950978043  5.4661181370586824   F   F   F
  8.2243162741173581  8.2243162741173581  1.3539600000000025   F   F   F
  6.8535968950978043  9.5950356531369252  5.4661181370586860   F   F   F
  5.4828775160782453  5.4828775160782453  1.3539600000000025   F   F   F
  9.5950356531369252  9.5950356531369252  2.7246793790195625   F   F   F
  8.2243162741173581  5.4828775160782453  4.0953987580391233   F   F   F
  6.8535968950978043  6.8535968950978043  2.7246793790195625   F   F   F
  5.4828775160782461  8.2243162741173581  4.0953987580391233   F   F   F
  9.5895072886124346  6.8572765122814658 11.0280703955056669   T   T   T
  8.2233984901795694  8.2202321835248888  6.8560812656863535   T   T   T
  6.8720265253554942  9.5654208770876501 11.0050049216793209   T   T   T
  5.4800976158500463  5.4776962228744068  6.8569494887999936   T   T   T
  9.5997222124309349  9.5875773502263666  8.2420363156951506   T   T   T
  8.2266861579156458  5.4775156978179975  9.6373322222882667   T   T   T
  6.8546427067660156  6.8438873739207056  8.2428363467044434   T   T   T
 10.9664729994977534  8.2166339254676455  9.6366980108559801   T   T   T
  7.4311102597475882  3.5276732692101680 16.0818731692151680   T   T   T
  8.2190859586120411  8.2175684976729695 12.4394155745969250   T   T   T
  7.3863021424289528  9.0433662737749358 16.3935335832971454   T   T   T
 10.9820701195896913  5.4841465656582216 12.3793386794033164   T   T   T
  9.6031020715597517  9.6232712312270330 13.8407513640690052   T   T   T
  8.2627276614053056  5.5676954743828393 15.2268139462151346   T   T   T
  6.8098867518499802  6.8296428605632009 13.8349061732752912   T   T   T
 10.8476448323143124  8.1661448352918722 15.2461338888767539   T   T   T
  9.5950356531369270 12.3364744111760647  5.4661181370586824   F   F   F
  8.2243162741173670 13.7071937901956087  1.3539600000000025   F   F   F
  6.8535968950978052 15.0779131692151687  5.4661181370586860   F   F   F
  5.4828775160782461 10.9657550321564905  1.3539600000000025   F   F   F
  9.5950356531369270 15.0779131692151687  2.7246793790195625   F   F   F
  8.2243162741173670 10.9657550321564905  4.0953987580391233   F   F   F
  6.8535968950978052 12.3364744111760647  2.7246793790195625   F   F   F
  5.4828775160782461 13.7071937901956087  4.0953987580391233   F   F   F
  9.6049230919752109 12.3239502777280574 11.0046604190805777   T   T   T
  8.2257696557564657 13.7065726685100717  6.8581648149609018   T   T   T
  6.8725109203906953 15.0578954746331455 11.0246535564661325   T   T   T
  5.4809817907218710 10.9620162713725726  6.8575592668556418   T   T   T
  9.6022480829472912 15.0731200691786089  8.2482903236253282   T   T   T
  8.2285938548791027 10.9551820864015745  9.6254104685986839   T   T   T
  6.8561334433263097 12.3300404059873721  8.2436147784313096   T   T   T
 10.9782026582793844 13.7024515394945272  9.6334570912660471   T   T   T
  7.4589701792303957 14.4788215938387044 16.0818731692151680   T   T   T
  8.2557039246250898 13.6841137960804424 12.4086162673192533   T   T   T
  9.1159081937571056 12.7930407038705880 16.7818731692151708   T   T   T
 10.9604870814386768 10.9520376785400018 12.3976623230682872   T   T   T
  9.6689945051442248 15.0432268328675001 13.8299058011583469   T   T   T
  8.2589614675083052 10.9947615746553797 15.2889629439046857   T   T   T
  6.8739292870079707 12.2655187333912750 13.7765870212991395   T   T   T
 10.9724373488128464 13.6844052399645033 15.3851045809455282   T   T   T
 15.0779131692151687  1.3707193790195613  5.4661181370586824   F   F   F
 13.7071937901956087  2.7414387580391226  1.3539600000000025   F   F   F
 12.3364744111760647  4.1121581370586826  5.4661181370586860   F   F   F
 10.9657550321564905  0.0000000000000000  1.3539600000000025   F   F   F
 15.0779131692151687  4.1121581370586826  2.7246793790195625   F   F   F
 13.7071937901956087  0.0000000000000002  4.0953987580391233   F   F   F
 12.3364744111760647  1.3707193790195613  2.7246793790195625   F   F   F
 10.9657550321564905  2.7414387580391226  4.0953987580391233   F   F   F
 15.0882753018918283  1.3562642225410801 11.0513433781953108   T   T   T
 13.7080696255530050  2.7385461260473463  6.8619350028341257   T   T   T
 12.3545720367422582  4.0866199954774292 11.0374616330029145   T   T   T
 10.9683568594702940 -0.0000360451719924  6.8604402259462898   T   T   T
 15.0835995953751851  4.1007510847998070  8.2554209475309737   T   T   T
 13.7192414026057783 -0.0044487113415444  9.6454353609961583   T   T   T
 12.3430019484334750  1.3632836491453009  8.2543879522901396   T   T   T
  0.0020291010576986  2.7280749646718010  9.6533012972080385   T   T   T
 12.9559261320100525  3.5109886259864966 16.0818731692151680   T   T   T
 13.7229713854533468  2.7193825554124071 12.4455962227736379   T   T   T
 14.6021870272139918  1.8314366547179053 16.7818731692151708   T   T   T
  0.0044584969235788 -0.0158542339988954 12.4476348025673680   T   T   T
 15.0946527043964309  4.1215267072209452 13.8615467379708956   T   T   T
 13.7117801186001884 -0.0250172496317509 15.3984777783268214   T   T   T
 12.3625563381015571  1.2830090788892574 13.8398550045221089   T   T   T
 -0.0810333557118813  2.6777461197656631 15.2752988309488487   T   T   T
 15.0779131692151687  6.8535968950978043  5.4661181370586824   F   F   F
 13.7071937901956087  8.2243162741173581  1.3539600000000025   F   F   F
 12.3364744111760647  9.5950356531369252  5.4661181370586860   F   F   F
 10.9657550321564905  5.4828775160782453  1.3539600000000025   F   F   F
 15.0779131692151687  9.5950356531369252  2.7246793790195625   F   F   F
 13.7071937901956087  5.4828775160782453  4.0953987580391233   F   F   F
 12.3364744111760647  6.8535968950978043  2.7246793790195625   F   F   F
 10.9657550321564905  8.2243162741173581  4.0953987580391233   F   F   F
 15.0803110515541388  6.8310256909705789 11.0281510303304291   T   T   T
 13.7060018868708386  8.2204318193057357  6.8608183802353233   T   T   T
 12.3398729526152930  9.5809142617180765 11.0246004493884211   T   T   T
 10.9657434733491286  5.4793527102703985  6.8603509661379078   T   T   T
 15.0775004285047842  9.5893473407781666  8.2523166929795693   T   T   T
 13.7083477057063785  5.4658335791249941  9.6423220575244368   T   T   T
 12.3394992958214136  6.8442194292585992  8.2516275158409620   T   T   T
 -0.0034516451013262  8.2077305083615997  9.6362812093114343   T   T   T
 12.9072233339943292  8.9729814742942100 16.0818731692151680   T   T   T
 13.6974557395025816  8.1958818241441413 12.4082273704228925   T   T   T
 14.5954369121314649  7.3185271623186594 16.7818731692151708   T   T   T
  0.0055423761629463  5.4541277558925927 12.4123153142195246   T   T   T
 15.1121320287060215  9.5834366764177581 13.7634316022234042   T   T   T
 13.7531774658783519  5.5706554271326922 15.2472576314917454   T   T   T
 12.3013618530118816  6.8396145523659957 13.8440240507532675   T   T   T
 -0.1084605486425157  8.1553122837565901 15.2319104521648914   T   T   T
 15.0779131692151687 12.3364744111760647  5.4661181370586824   F   F   F
 13.7071937901956087 13.7071937901956087  1.3539600000000025   F   F   F
 12.3364744111760647 15.0779131692151687  5.4661181370586860   F   F   F
 10.9657550321564905 10.9657550321564905  1.3539600000000025   F   F   F
 15.0779131692151687 15.0779131692151687  2.7246793790195625   F   F   F
 13.7071937901956087 10.9657550321564905  4.0953987580391233   F   F   F
 12.3364744111760647 12.3364744111760647  2.7246793790195625   F   F   F
 10.9657550321564905 13.7071937901956087  4.0953987580391233   F   F   F
 15.0610411340001669 12.3477908231794817 11.0334731568411168   T   T   T
 13.7082466857346770 13.7057179749039690  6.8586867728931953   T   T   T
 12.3614774554066251 15.0578454042611014 11.0250403243081649   T   T   T
 10.9666189651016222 10.9633729227463235  6.8565760406719427   T   T   T
 15.0811499149128654 15.0748159170205689  8.2485832988280876   T   T   T
 13.7077400876436197 10.9610427620475885  9.6438602285705048   T   T   T
 12.3408225513932273 12.3290971368765767  8.2466017445478563   T   T   T
 -0.0028180580467319 13.7036700594824197  9.6422635094523699   T   T   T
 12.8289083542228113 14.5617263155155925 16.7818731692151708   T   T   T
 13.7135155608170685 13.7172599125902952 12.4660136671065747   T   T   T
 14.5161911722502470 12.9205368332623731 16.0818731692151680   T   T   T
  0.0017630445695902 10.9540650244415474 12.3586727713923530   T   T   T
 15.1085136235870152 15.0976362348460729 13.9182572004705563   T   T   T
 13.7084218059454379 10.9445794580234086 15.0778075457045677   T   T   T
 12.2710457240651927 12.3309906327737373 13.8275487940519746   T   T   T
  0.1287827007755142 13.7325700703899454 15.2524967662724098   T   T   T
  4.0093272622495064  1.6682480701595692 19.5433000177865139   T   T   T
  0.5642299440237045  1.4520985271619116 21.1499125851383099   T   T   T
  0.7962683518063907  1.6794209287548711 19.4032035079311136   T   T   T
  1.7287134590294986  0.4162245791007441 20.2700209295782088   T   T   T
  2.8583857024738411  4.3795896044447513 20.9897485875222820   T   T   T
  1.5053730559013487  4.1167183955643694 19.8371141800514899   T   T   T
  1.2438846141889628  3.8594842359445480 21.5705685550590722   T   T   T
  5.8709737838013822  0.5669931116461682 21.2230135397138788   T   T   T
  4.9595110035072762 -0.4446183014802276 20.0548745255211429   T   T   T
  4.9640297920937213 -0.8733874047430790 21.7950522312536386   T   T   T
  6.0804756320278281  2.6728465656726690 19.6491257048560399   T   T   T
  6.2541294631569198  4.0012268413778322 20.8473952367398212   T   T   T
  5.0734502731722344  4.1411388199625652 19.5094995969727059   T   T   T
  3.7215056900433154  1.9140097562688925 20.5873601903342802   T   T   T
  1.3191879344065693  1.4274826662203473 20.3473837085747675   T   T   T
  1.9893064743479434  3.7561446415844744 20.7659422796723199   T   T   T
  4.9690764455243821 -0.0457943015313656 21.0816977975320725   T   T   T
  5.5473626289281297  3.4477089984941913 20.2239034014243266   T   T   T
  2.3757351873572712  2.3723643525559730 20.6220621369982560   T   T   T
  3.7921551340674968  0.7304548371453456 21.3475224872740768   T   T   T
  4.5925952653726503  2.8761503229217311 21.1278261102660707   T   T   T
