H  Si H  C  N  O 
 1.0000000000000000
    16.4486325482347304    0.0000000000000000    0.0000000000000000
     0.0000000000000009   16.4486325482347304    0.0000000000000000
     0.0000000000000000    0.0000000000000000   45.0779131692151651
 H   Si  H   C   N   O  
  36 216  13   5   1   2
Selective dynamics
Cartesian
  3.5953974755424922  1.8874800405357530  0.5000000000000024   F   F   F
 11.8197137496598597 10.1117963146531213  0.5000000000000024   F   F   F
 12.8532350726922378  3.5953974755424922  0.5000000000000039   F   F   F
  1.8874800405357544  9.0782749916207255  0.5000000000000000   F   F   F
  7.3703575566139987 14.5611525076989778  0.5000000000000008   F   F   F
  7.3703575566139925  9.0782749916207273  0.5000000000000024   F   F   F
 11.8197137496598597 15.5946738307313595  0.5000000000000031   F   F   F
  3.5953974755424931 12.8532350726922378  0.5000000000000038   F   F   F
  7.3703575566139916  3.5953974755424927  0.5000000000000048   F   F   F
 15.5946738307313595 11.8197137496598597  0.5000000000000034   F   F   F
 14.5611525076989796  7.3703575566139916  0.5000000000000033   F   F   F
 15.5946738307313613  0.8539587175033697  0.5000000000000024   F   F   F
 10.1117963146531213  6.3368362335816162  0.5000000000000024   F   F   F
  0.8539587175033699  4.6289187985748779  0.5000000000000016   F   F   F
  4.6289187985748779  6.3368362335816153  0.5000000000000024   F   F   F
  1.8874800405357550 14.5611525076989778  0.5000000000000011   F   F   F
 10.1117963146531213  0.8539587175033699  0.5000000000000018   F   F   F
  9.0782749916207433 12.8532350726922378  0.5000000000000042   F   F   F
  0.8539587175033705 10.1117963146531213  0.5000000000000016   F   F   F
  9.0782749916207273  1.8874800405357539  0.5000000000000002   F   F   F
 12.8532350726922378  9.0782749916207255  0.5000000000000016   F   F   F
  6.3368362335816171 10.1117963146531213  0.5000000000000027   F   F   F
  1.8874800405357530  3.5953974755424922  0.5000000000000024   F   F   F
  4.6289187985748779  0.8539587175033697  0.5000000000000016   F   F   F
 14.5611525076989778  1.8874800405357544  0.5000000000000010   F   F   F
  0.8539587175033706 15.5946738307313613  0.5000000000000024   F   F   F
  6.3368362335816171 15.5946738307313613  0.5000000000000034   F   F   F
  9.0782749916207273  7.3703575566139916  0.5000000000000024   F   F   F
  4.6289187985748788 11.8197137496598597  0.5000000000000023   F   F   F
 11.8197137496598597  4.6289187985748779  0.5000000000000024   F   F   F
 12.8532350726922395 14.5611525076989778  0.5000000000000024   F   F   F
 14.5611525076989778 12.8532350726922395  0.5000000000000024   F   F   F
  6.3368362335816153  4.6289187985748779  0.5000000000000024   F   F   F
 10.1117963146531213 11.8197137496598597  0.5000000000000024   F   F   F
 15.5946738307313613  6.3368362335816162  0.5000000000000034   F   F   F
  3.5953974755424936  7.3703575566139898  0.5000000000000049   F   F   F
  4.1121581370586826  1.3707193790195613  5.4661181370586824   F   F   F
  2.7414387580391226  2.7414387580391226  1.3539600000000025   F   F   F
  1.3707193790195615  4.1121581370586826  5.4661181370586860   F   F   F
  0.0000000000000000  0.0000000000000000  1.3539600000000025   F   F   F
  4.1121581370586826  4.1121581370586826  2.7246793790195625   F   F   F
  2.7414387580391226  0.0000000000000002  4.0953987580391233   F   F   F
  1.3707193790195613  1.3707193790195613  2.7246793790195625   F   F   F
  0.0000000000000002  2.7414387580391226  4.0953987580391233   F   F   F
  4.0943922676001154  1.3900984341612939 11.0271806714872671   T   T   T
  2.7408030256700613  2.7417608281567403  6.8592255792603254   T   T   T
  1.3805145254554811  4.0956639747595833 11.0474329204308059   T   T   T
  0.0015554197017204  0.0016935924848957  6.8581570145317912   T   T   T
  4.1111147794255487  4.1131564860431675  8.2492001973878519   T   T   T
  2.7399689553328628  0.0071423904106845  9.6390992514219178   T   T   T
  1.3690185912911665  1.3730843416832272  8.2500429857051856   T   T   T
  5.4805385972387990  2.7459570160615723  9.6404647623887030   T   T   T
  1.9915311364136037  3.4950143674297194 16.0818731692151680   T   T   T
  2.7286845402104323  2.7288619416858491 12.4677758812162800   T   T   T
  3.6484926489256022  1.8571824440681817 16.7818731692151708   T   T   T
  5.4743897806160016  0.0068855637685766 12.3703168744685090   T   T   T
  4.1222659279326095  4.1497260270946299 13.8420093754240767   T   T   T
  2.7563360086293240 -0.0115143600002081 15.3996240768949324   T   T   T
  1.3538077073015335  1.3202049105941411 13.9148951490544377   T   T   T
  5.4100714430687642  2.7030104943267705 15.2291994033603242   T   T   T
  4.1121581370586826  6.8535968950978043  5.4661181370586824   F   F   F
  2.7414387580391231  8.2243162741173581  1.3539600000000025   F   F   F
  1.3707193790195618  9.5950356531369252  5.4661181370586860   F   F   F
  0.0000000000000003  5.4828775160782453  1.3539600000000025   F   F   F
  4.1121581370586826  9.5950356531369252  2.7246793790195625   F   F   F
  2.7414387580391231  5.4828775160782453  4.0953987580391233   F   F   F
  1.3707193790195618  6.8535968950978043  2.7246793790195625   F   F   F
  0.0000000000000005  8.2243162741173581  4.0953987580391233   F   F   F
  4.1117792043613290  6.8484201807105345 11.0195944515122104   T   T   T
  2.7418535424750674  8.2237426026216642  6.8590603639857761   T   T   T
  1.3859256361051089  9.5850059813257751 11.0100554651370057   T   T   T
  0.0000337216409840  5.4814164145533111  6.8600602487116511   T   T   T
  4.1160353853624310  9.5951545107241323  8.2457604019002808   T   T   T
  2.7372738689752101  5.4743562815157043  9.6440182860450836   T   T   T
  1.3730987424997572  6.8489370377247125  8.2491550008170815   T   T   T
  5.4838727036566564  8.2193836371934506  9.6324369395638794   T   T   T
  1.9480421495089530  8.9872958351606851 16.0818731692151680   T   T   T
  2.7409197674195278  8.2083088921686329 12.4118726101275030   T   T   T
  3.6388702277696181  7.3343902889755510 16.7818731692151708   T   T   T
  5.4857141077267890  5.4807885899630335 12.4053829522885302   T   T   T
  4.1746724736531711  9.5816477909605808 13.7738855675975618   T   T   T
  2.7851882977043290  5.5718805856524458 15.2583861099866187   T   T   T
  1.3426149912476892  6.8436318323625613 13.8443872056578847   T   T   T
  5.4393559302407768  8.1935130637651010 15.2861696679577328   T   T   T
  4.1121581370586835 12.3364744111760647  5.4661181370586824   F   F   F
  2.7414387580391235 13.7071937901956087  1.3539600000000025   F   F   F
  1.3707193790195622 15.0779131692151687  5.4661181370586860   F   F   F
  0.0000000000000006 10.9657550321564905  1.3539600000000025   F   F   F
  4.1121581370586835 15.0779131692151687  2.7246793790195625   F   F   F
  2.7414387580391231 10.9657550321564905  4.0953987580391233   F   F   F
  1.3707193790195620 12.3364744111760647  2.7246793790195625   F   F   F
  0.0000000000000008 13.7071937901956087  4.0953987580391233   F   F   F
  4.1168631641698541 12.3480712815119276 11.0193249793399257   T   T   T
  2.7428935418265552 13.7093670816320916  6.8607732692509806   T   T   T
  1.3664520316085624 15.0916815945234983 11.0296368967808238   T   T   T
  0.0013826592164596 10.9677315302641993  6.8607084745072378   T   T   T
  4.1134406963858519 15.0827199549772217  8.2515644677412929   T   T   T
  2.7485215764827156 10.9700669586942112  9.6330252686798961   T   T   T
  1.3705407086079715 12.3407078527541607  8.2511894825150822   T   T   T
  5.4927302651878760 13.7131216050136775  9.6359338117219178   T   T   T
  1.8890643062049080 14.5719205434003953 16.7818731692151708   T   T   T
  2.7500979589301826 13.7346295072382087 12.4032526828331342   T   T   T
  3.5583919062158871 12.8981446729272076 16.0818731692151680   T   T   T
  5.5058070381192872 10.9525335770963039 12.3637862647165200   T   T   T
  4.1068440309851661 15.1470369103272837 13.8168680684199838   T   T   T
  2.7498658857149731 10.9464847611801979 15.0550003227758751   T   T   T
  1.3503249490022191 12.3377059797164232 13.7637066775054606   T   T   T
  5.5032785928329648 13.7115024994876666 15.0548717945097650   T   T   T
  9.5950356531369252  1.3707193790195613  5.4661181370586824   F   F   F
  8.2243162741173581  2.7414387580391226  1.3539600000000025   F   F   F
  6.8535968950978043  4.1121581370586826  5.4661181370586860   F   F   F
  5.4828775160782453  0.0000000000000000  1.3539600000000025   F   F   F
  9.5950356531369252  4.1121581370586826  2.7246793790195625   F   F   F
  8.2243162741173581  0.0000000000000002  4.0953987580391233   F   F   F
  6.8535968950978043  1.3707193790195613  2.7246793790195625   F   F   F
  5.4828775160782453  2.7414387580391226  4.0953987580391233   F   F   F
  9.6041248019787560  1.3736194729864732 11.0356104161341246   T   T   T
  8.2260593526069865  2.7429946829780434  6.8621906030198385   T   T   T
  6.8560342598146384  4.1158320517238227 11.0215314395588102   T   T   T
  5.4846169741385342  0.0018936497690419  6.8604220225723376   T   T   T
  9.5982736576306795  4.1129244037738175  8.2547910519879366   T   T   T
  8.2332622453598372  0.0046461993261875  9.6415451302928030   T   T   T
  6.8542994693719139  1.3731822597144661  8.2535686515709372   T   T   T
 10.9730910967726700  2.7429617931032051  9.6460802671823753   T   T   T
  9.1400599583753284  1.8543211088995506 16.3452323420240511   T   T   T
  8.2274069282441502  2.7576770848680812 12.4071662725682401   T   T   T
  9.1127144154180897  7.3307794491029270 16.7818731692151708   T   T   T
 10.9918077549052988 -0.0138017500635770 12.4012281700003850   T   T   T
  9.6140589790167148  4.1739882357958180 13.7986747086952164   T   T   T
  8.2633226636726729  0.0343812366694628 15.0938296107031746   T   T   T
  6.8114477307808992  1.3649057302562240 13.7833960313120247   T   T   T
 10.9699626272855042  2.7332060905834230 15.1039205344534491   T   T   T
  9.5950356531369252  6.8535968950978043  5.4661181370586824   F   F   F
  8.2243162741173581  8.2243162741173581  1.3539600000000025   F   F   F
  6.8535968950978043  9.5950356531369252  5.4661181370586860   F   F   F
  5.4828775160782453  5.4828775160782453  1.3539600000000025   F   F   F
  9.5950356531369252  9.5950356531369252  2.7246793790195625   F   F   F
  8.2243162741173581  5.4828775160782453  4.0953987580391233   F   F   F
  6.8535968950978043  6.8535968950978043  2.7246793790195625   F   F   F
  5.4828775160782461  8.2243162741173581  4.0953987580391233   F   F   F
  9.5879352133859364  6.8688843679798275 11.0298208681304502   T   T   T
  8.2248914183915716  8.2240558243935968  6.8560997475808270   T   T   T
  6.8730147319932717  9.5789681836112521 11.0089830302901888   T   T   T
  5.4822065695975768  5.4821470859664236  6.8581425114727237   T   T   T
  9.5987184117166393  9.5945233324508461  8.2420525550937356   T   T   T
  8.2260540869915939  5.4874478472853010  9.6393741560007449   T   T   T
  6.8546295238705683  6.8518471621671733  8.2447405725160756   T   T   T
 10.9652718940861273  8.2264238912163776  9.6355899480718801   T   T   T
  7.4358234346325496  3.5496431862081925 16.0818731692151680   T   T   T
  8.2204929011941896  8.2318858229315648 12.4426422122269589   T   T   T
  7.3886465576899285  9.0653713724323719 16.3935335832971454   T   T   T
 10.9834545796289547  5.5003888309549005 12.3818490653044204   T   T   T
  9.6040897931136158  9.6412438688216362 13.8425610720760091   T   T   T
  8.2637857540335542  5.5851392679577163 15.2331941386131895   T   T   T
  6.8129189014820541  6.8479587632518024 13.8377616752769477   T   T   T
 10.8537863223953011  8.1879156361806320 15.2475522693029006   T   T   T
  9.5950356531369270 12.3364744111760647  5.4661181370586824   F   F   F
  8.2243162741173670 13.7071937901956087  1.3539600000000025   F   F   F
  6.8535968950978052 15.0779131692151687  5.4661181370586860   F   F   F
  5.4828775160782461 10.9657550321564905  1.3539600000000025   F   F   F
  9.5950356531369270 15.0779131692151687  2.7246793790195625   F   F   F
  8.2243162741173670 10.9657550321564905  4.0953987580391233   F   F   F
  6.8535968950978052 12.3364744111760647  2.7246793790195625   F   F   F
  5.4828775160782461 13.7071937901956087  4.0953987580391233   F   F   F
  9.6038892898972534 12.3376714078554617 11.0079664459789193   T   T   T
  8.2283107810358551 13.7101044908384750  6.8590762405517598   T   T   T
  6.8723634980623691 15.0729161516828256 11.0275500748816135   T   T   T
  5.4849000199153854 10.9672513611517246  6.8574189910557255   T   T   T
  9.6026488939608505 15.0807307862873881  8.2496980569985947   T   T   T
  8.2312707250533812 10.9647092816662290  9.6275034592419697   T   T   T
  6.8576607872155355 12.3372982969397782  8.2456892249694054   T   T   T
 10.9797271868711928 13.7111568547088893  9.6340492256833770   T   T   T
  7.4588071930905819 14.5041381643033898 16.0818731692151680   T   T   T
  8.2578293324295604 13.7021605362423120 12.4122681063074580   T   T   T
  9.1147311296817897 12.8160447766034427 16.7818731692151708   T   T   T
 10.9628054623171263 10.9684623935945318 12.3989545126091212   T   T   T
  9.6709335115463357 15.0612554496203508 13.8347218602577016   T   T   T
  8.2609696567172026 11.0163835384097304 15.2891583134713169   T   T   T
  6.8728581629612533 12.2856777839535329 13.7794079158051890   T   T   T
 10.9748965122384430 13.7016819748167809 15.3875950917020656   T   T   T
 15.0779131692151687  1.3707193790195613  5.4661181370586824   F   F   F
 13.7071937901956087  2.7414387580391226  1.3539600000000025   F   F   F
 12.3364744111760647  4.1121581370586826  5.4661181370586860   F   F   F
 10.9657550321564905  0.0000000000000000  1.3539600000000025   F   F   F
 15.0779131692151687  4.1121581370586826  2.7246793790195625   F   F   F
 13.7071937901956087  0.0000000000000002  4.0953987580391233   F   F   F
 12.3364744111760647  1.3707193790195613  2.7246793790195625   F   F   F
 10.9657550321564905  2.7414387580391226  4.0953987580391233   F   F   F
 15.0885513174747850  1.3719875846888232 11.0478542210006196   T   T   T
 13.7091973510682568  2.7417540849041240  6.8608542052738235   T   T   T
 12.3542245874092025  4.1009989941940708 11.0376419309484000   T   T   T
 10.9703889328271931  0.0031222753181471  6.8600316597197617   T   T   T
 15.0827846000310224  4.1083442684110745  8.2530044627892973   T   T   T
 13.7207017752790357  0.0060565635908855  9.6452267926861150   T   T   T
 12.3424389424550132  1.3709935834825324  8.2547017774950504   T   T   T
  0.0042075017739704  2.7408085127615314  9.6497406055937063   T   T   T
 12.9573925469269735  3.5312191830972290 16.0818731692151680   T   T   T
 13.7236938003370490  2.7357058018708069 12.4453676729389358   T   T   T
 14.6084929340318741  1.8527266265114246 16.7818731692151708   T   T   T
  0.0040944384436118  0.0011374695016238 12.4435778907902854   T   T   T
 15.0940914986479822  4.1415582447735559 13.8595045826400352   T   T   T
 13.7134321894795654 -0.0035602664014570 15.3974826005645404   T   T   T
 12.3604396121357247  1.3027406641455055 13.8399387355181105   T   T   T
 -0.0799359768343266  2.6974916696719160 15.2694136882494576   T   T   T
 15.0779131692151687  6.8535968950978043  5.4661181370586824   F   F   F
 13.7071937901956087  8.2243162741173581  1.3539600000000025   F   F   F
 12.3364744111760647  9.5950356531369252  5.4661181370586860   F   F   F
 10.9657550321564905  5.4828775160782453  1.3539600000000025   F   F   F
 15.0779131692151687  9.5950356531369252  2.7246793790195625   F   F   F
 13.7071937901956087  5.4828775160782453  4.0953987580391233   F   F   F
 12.3364744111760647  6.8535968950978043  2.7246793790195625   F   F   F
 10.9657550321564905  8.2243162741173581  4.0953987580391233   F   F   F
 15.0792176062604906  6.8469239182335730 11.0255769618685715   T   T   T
 13.7079274924327770  8.2250208902216002  6.8616414979306750   T   T   T
 12.3381517524666346  9.5935890242382840 11.0234461481756068   T   T   T
 10.9662454257968740  5.4825987949369948  6.8604942760072101   T   T   T
 15.0795645734429300  9.5980197563955709  8.2516958204344597   T   T   T
 13.7094598040851956  5.4773023492530051  9.6394091665870647   T   T   T
 12.3373670116283929  6.8514879302900447  8.2513364826211060   T   T   T
  0.0006446948479558  8.2197398410087370  9.6345790477455555   T   T   T
 12.9128262574874455  8.9919445891125793 16.0818731692151680   T   T   T
 13.6985886639936219  8.2140801101734002 12.4058883524171168   T   T   T
 14.6019223196998649  7.3386195254245132 16.7818731692151708   T   T   T
  0.0071803285808494  5.4729704455520345 12.4104291417549497   T   T   T
 15.1149363572881690  9.6012681823853292 13.7602250608121004   T   T   T
 13.7566005441318371  5.5906166435488513 15.2467884784341390   T   T   T
 12.3042592985650430  6.8592262249001772 13.8429611851938752   T   T   T
 -0.1034506615111377  8.1796019440332106 15.2323924580752337   T   T   T
 15.0779131692151687 12.3364744111760647  5.4661181370586824   F   F   F
 13.7071937901956087 13.7071937901956087  1.3539600000000025   F   F   F
 12.3364744111760647 15.0779131692151687  5.4661181370586860   F   F   F
 10.9657550321564905 10.9657550321564905  1.3539600000000025   F   F   F
 15.0779131692151687 15.0779131692151687  2.7246793790195625   F   F   F
 13.7071937901956087 10.9657550321564905  4.0953987580391233   F   F   F
 12.3364744111760647 12.3364744111760647  2.7246793790195625   F   F   F
 10.9657550321564905 13.7071937901956087  4.0953987580391233   F   F   F
 15.0637057806765213 12.3615757247714928 11.0312806563638208   T   T   T
 13.7109449433558872 13.7100954940806261  6.8581409596664926   T   T   T
 12.3610053450468715 15.0721203049776253 11.0266395225795453   T   T   T
 10.9689985241984242 10.9672841588888250  6.8572609689246216   T   T   T
 15.0818134134185708 15.0822270269114895  8.2491338859545529   T   T   T
 13.7090436872884744 10.9714179707587949  9.6422021652712431   T   T   T
 12.3420198379056867 12.3373741795864102  8.2458714830489690   T   T   T
  0.0011561716951740 13.7152352407808902  9.6412281289527826   T   T   T
 12.8322282348598709 14.5820135756453304 16.7818731692151708   T   T   T
 13.7160377473742017 13.7323672452655892 12.4645394593993721   T   T   T
 14.5189339279663496 12.9396153291329750 16.0818731692151680   T   T   T
  0.0062698310216989 10.9716091742237403 12.3574441601138005   T   T   T
 15.1079937477160637 15.1153832023956483 13.9141234139707226   T   T   T
 13.7143304705839757 10.9658088492798935 15.0777246642315799   T   T   T
 12.2741951753077316 12.3482849831056924 13.8296615439951154   T   T   T
  0.1309504666976271 13.7543568718616243 15.2509890094697607   T   T   T
  5.4067575339532290  0.9872620242939788 18.8207318204305523   T   T   T
  2.3418050107379913  0.7277308752484339 20.7803831438905355   T   T   T
  1.6728700551619802  1.3390665709167167 19.2365426793438985   T   T   T
  2.8111309492696872 -0.0486525752910291 19.2510102103189986   T   T   T
  4.0937426610200900  3.5807960655937014 20.6956074437624800   T   T   T
  3.3273689708155492  3.8889131154784624 19.1193790396758665   T   T   T
  2.3613642603947871  3.2140794787217049 20.4395600533669324   T   T   T
  6.9759858757962645  0.0708771426561814 20.9224712371463575   T   T   T
  6.3256446007477507 -1.0737770576944949 19.6989124826507442   T   T   T
  5.9972689676410740 -1.3463666283228219 21.4409840077998020   T   T   T
  7.5068809724452947  1.9834256285389571 19.1546890476184899   T   T   T
  7.4842184250877573  3.4095967140994086 20.2484817115644908   T   T   T
  6.4477035997329990  3.3763859403416192 18.7832334884845196   T   T   T
  5.0017503307861535  1.2902543712013443 19.8063325459850859   T   T   T
  2.5636185902319459  0.9126899689742334 19.7139886686481809   T   T   T
  3.3557703211252621  3.2045167591065087 19.9811040281995069   T   T   T
  6.1364386890788927 -0.5889799791240764 20.6693598628360071   T   T   T
  6.8780796931412089  2.7738565495352976 19.5991868920849868   T   T   T
  3.6706253335010914  1.8401122912227277 19.5582286259302016   T   T   T
  4.9070199906195935  0.1684213224219986 20.6308705925316005   T   T   T
  5.8543297046590075  2.2193815361116394 20.4288297560113961   T   T   T
