H  Si
 1.0000000000000000
    16.4486325482347304    0.0000000000000000    0.0000000000000000
     0.0000000000000009   16.4486325482347304    0.0000000000000000
     0.0000000000000000    0.0000000000000000   45.0779131692151651
 H   Si 
  36 216
Selective dynamics
Cartesian
  3.5953974755424922  1.8874800405357530  0.5000000000000024   F   F   F
 11.8197137496598597 10.1117963146531213  0.5000000000000024   F   F   F
 12.8532350726922378  3.5953974755424922  0.5000000000000039   F   F   F
  1.8874800405357544  9.0782749916207255  0.5000000000000000   F   F   F
  7.3703575566139987 14.5611525076989778  0.5000000000000008   F   F   F
  7.3703575566139925  9.0782749916207273  0.5000000000000024   F   F   F
 11.8197137496598597 15.5946738307313595  0.5000000000000031   F   F   F
  3.5953974755424931 12.8532350726922378  0.5000000000000038   F   F   F
  7.3703575566139916  3.5953974755424927  0.5000000000000048   F   F   F
 15.5946738307313595 11.8197137496598597  0.5000000000000034   F   F   F
 14.5611525076989796  7.3703575566139916  0.5000000000000033   F   F   F
 15.5946738307313613  0.8539587175033697  0.5000000000000024   F   F   F
 10.1117963146531213  6.3368362335816162  0.5000000000000024   F   F   F
  0.8539587175033699  4.6289187985748779  0.5000000000000016   F   F   F
  4.6289187985748779  6.3368362335816153  0.5000000000000024   F   F   F
  1.8874800405357550 14.5611525076989778  0.5000000000000011   F   F   F
 10.1117963146531213  0.8539587175033699  0.5000000000000018   F   F   F
  9.0782749916207433 12.8532350726922378  0.5000000000000042   F   F   F
  0.8539587175033705 10.1117963146531213  0.5000000000000016   F   F   F
  9.0782749916207273  1.8874800405357539  0.5000000000000002   F   F   F
 12.8532350726922378  9.0782749916207255  0.5000000000000016   F   F   F
  6.3368362335816171 10.1117963146531213  0.5000000000000027   F   F   F
  1.8874800405357530  3.5953974755424922  0.5000000000000024   F   F   F
  4.6289187985748779  0.8539587175033697  0.5000000000000016   F   F   F
 14.5611525076989778  1.8874800405357544  0.5000000000000010   F   F   F
  0.8539587175033706 15.5946738307313613  0.5000000000000024   F   F   F
  6.3368362335816171 15.5946738307313613  0.5000000000000034   F   F   F
  9.0782749916207273  7.3703575566139916  0.5000000000000024   F   F   F
  4.6289187985748788 11.8197137496598597  0.5000000000000023   F   F   F
 11.8197137496598597  4.6289187985748779  0.5000000000000024   F   F   F
 12.8532350726922395 14.5611525076989778  0.5000000000000024   F   F   F
 14.5611525076989778 12.8532350726922395  0.5000000000000024   F   F   F
  6.3368362335816153  4.6289187985748779  0.5000000000000024   F   F   F
 10.1117963146531213 11.8197137496598597  0.5000000000000024   F   F   F
 15.5946738307313613  6.3368362335816162  0.5000000000000034   F   F   F
  3.5953974755424936  7.3703575566139898  0.5000000000000049   F   F   F
  4.1121581370586826  1.3707193790195613  5.4661181370586824   F   F   F
  2.7414387580391226  2.7414387580391226  1.3539600000000025   F   F   F
  1.3707193790195615  4.1121581370586826  5.4661181370586860   F   F   F
  0.0000000000000000  0.0000000000000000  1.3539600000000025   F   F   F
  4.1121581370586826  4.1121581370586826  2.7246793790195625   F   F   F
  2.7414387580391226  0.0000000000000002  4.0953987580391233   F   F   F
  1.3707193790195613  1.3707193790195613  2.7246793790195625   F   F   F
  0.0000000000000002  2.7414387580391226  4.0953987580391233   F   F   F
  4.0900967209976304  1.3928350746421627 11.0208622656150759   T   T   T
  2.7401951309243269  2.7422374107616170  6.8574503732667464   T   T   T
  1.3754087044776930  4.0989359983891447 11.0458316952722218   T   T   T
 -0.0001965251247727  0.0012702468512996  6.8574011848272942   T   T   T
  4.1074195499401185  4.1157761558094563  8.2463477930229701   T   T   T
  2.7360191889474392  0.0079192752425546  9.6357145445276036   T   T   T
  1.3660977506508925  1.3751779850169270  8.2483276602767202   T   T   T
  5.4776043703974784  2.7467413938937080  9.6324496350662070   T   T   T
  1.9873305635129754  3.5026657981734228 16.0818731692151680   T   T   T
  2.7213698638931993  2.7298675511028656 12.4633823978435672   T   T   T
  3.6560632732110094  1.8486577560238735 16.7818731692151708   T   T   T
  5.4683512041229152  0.0078837670085487 12.3625157934768684   T   T   T
  4.1083944110416128  4.1517963068187687 13.8382202001270631   T   T   T
  2.7524051171646571 -0.0060541064036781 15.3938374855675626   T   T   T
  1.3488462127337351  1.3295409864181302 13.9161189912791592   T   T   T
  5.3907183459317212  2.6972754193319117 15.2176376653238794   T   T   T
  4.1121581370586826  6.8535968950978043  5.4661181370586824   F   F   F
  2.7414387580391231  8.2243162741173581  1.3539600000000025   F   F   F
  1.3707193790195618  9.5950356531369252  5.4661181370586860   F   F   F
  0.0000000000000003  5.4828775160782453  1.3539600000000025   F   F   F
  4.1121581370586826  9.5950356531369252  2.7246793790195625   F   F   F
  2.7414387580391231  5.4828775160782453  4.0953987580391233   F   F   F
  1.3707193790195618  6.8535968950978043  2.7246793790195625   F   F   F
  0.0000000000000005  8.2243162741173581  4.0953987580391233   F   F   F
  4.1043626881872299  6.8482819102326280 11.0188407593064195   T   T   T
  2.7385865664931974  8.2233961793990513  6.8580082923585994   T   T   T
  1.3756941870494974  9.5869333144405857 11.0076197501069561   T   T   T
 -0.0022442357676814  5.4810553175610854  6.8587275802833796   T   T   T
  4.1090291615461041  9.5971587296334953  8.2451004927038269   T   T   T
  2.7321543918700884  5.4766247994817423  9.6417280836322021   T   T   T
  1.3665460954473678  6.8513927083248181  8.2485550112483939   T   T   T
  5.4748980831835468  8.2184687115309618  9.6288844045530126   T   T   T
  1.9301185483228160  8.9938384465982999 16.0818731692151680   T   T   T
  2.7295224680095092  8.2083627099402019 12.4064037207187496   T   T   T
  3.6229682191592292  7.3410230311310460 16.7818731692151708   T   T   T
  5.4787220648502428  5.4790271928981635 12.4004050902344858   T   T   T
  4.1612570643826281  9.5830561398157013 13.7690360459324808   T   T   T
  2.7760309933703544  5.5785582567585879 15.2561045174016190   T   T   T
  1.3344717517658793  6.8445126860103409 13.8431787105373694   T   T   T
  5.4214381902446780  8.1979898280088577 15.2838378690712453   T   T   T
  4.1121581370586835 12.3364744111760647  5.4661181370586824   F   F   F
  2.7414387580391235 13.7071937901956087  1.3539600000000025   F   F   F
  1.3707193790195622 15.0779131692151687  5.4661181370586860   F   F   F
  0.0000000000000006 10.9657550321564905  1.3539600000000025   F   F   F
  4.1121581370586835 15.0779131692151687  2.7246793790195625   F   F   F
  2.7414387580391231 10.9657550321564905  4.0953987580391233   F   F   F
  1.3707193790195620 12.3364744111760647  2.7246793790195625   F   F   F
  0.0000000000000008 13.7071937901956087  4.0953987580391233   F   F   F
  4.1097483102409322 12.3493151874120635 11.0184404057901588   T   T   T
  2.7417121633568247 13.7093761258589399  6.8584635049238898   T   T   T
  1.3606473942516852 15.0931633285580791 11.0282025506653198   T   T   T
 -0.0010108202988566 10.9662320970237026  6.8580467427565770   T   T   T
  4.1114851321215387 15.0832324871298660  8.2485422298985860   T   T   T
  2.7414369143883501 10.9720725738333744  9.6322595310463353   T   T   T
  1.3658924999692399 12.3417101689562525  8.2481105724856203   T   T   T
  5.4865956981122519 13.7123169693706064  9.6342002649525043   T   T   T
  1.8788373658607425 14.5758057029672052 16.7818731692151708   T   T   T
  2.7418571087742070 13.7361922356305204 12.4034640202766706   T   T   T
  3.5492466969898295 12.8996765642520685 16.0818731692151680   T   T   T
  5.4975763989299518 10.9520026258940923 12.3594305736215357   T   T   T
  4.1010583684351660 15.1526168409974193 13.8155132259911344   T   T   T
  2.7382334067425673 10.9506557641668110 15.0527246728898216   T   T   T
  1.3366434000386322 12.3406716531798004 13.7626467592283728   T   T   T
  5.4952257143646683 13.7142691195343325 15.0567440641372983   T   T   T
  9.5950356531369252  1.3707193790195613  5.4661181370586824   F   F   F
  8.2243162741173581  2.7414387580391226  1.3539600000000025   F   F   F
  6.8535968950978043  4.1121581370586826  5.4661181370586860   F   F   F
  5.4828775160782453  0.0000000000000000  1.3539600000000025   F   F   F
  9.5950356531369252  4.1121581370586826  2.7246793790195625   F   F   F
  8.2243162741173581  0.0000000000000002  4.0953987580391233   F   F   F
  6.8535968950978043  1.3707193790195613  2.7246793790195625   F   F   F
  5.4828775160782453  2.7414387580391226  4.0953987580391233   F   F   F
  9.5996225169084859  1.3751901262359418 11.0323166287209489   T   T   T
  8.2251761530197598  2.7419972737691962  6.8577092095300660   T   T   T
  6.8503421864140188  4.1197671875274224 11.0129526855375328   T   T   T
  5.4845122922766336  0.0019777715572162  6.8581935870637345   T   T   T
  9.5970207858490415  4.1129999027218132  8.2477983124556218   T   T   T
  8.2295453338826121  0.0047772639418504  9.6392152802352680   T   T   T
  6.8540114881776963  1.3728363785880204  8.2493706150637394   T   T   T
 10.9703218636430702  2.7434937162115043  9.6414873112535151   T   T   T
  9.1417344179875073  1.8483156352795265 16.3452323420240511   T   T   T
  8.2210003237426967  2.7644594229041708 12.3999248017448327   T   T   T
  9.0964279520093942  7.3380129690642111 16.7818731692151708   T   T   T
 10.9841534012779416 -0.0144313178987913 12.3988418526647113   T   T   T
  9.6043420643801500  4.1794106244024487 13.7983029090642066   T   T   T
  8.2524689686919732  0.0346434170148474 15.0851486458327297   T   T   T
  6.8025503192673922  1.3683822708091999 13.7804340424043534   T   T   T
 10.9619746267935252  2.7357774443060157 15.0969414416992933   T   T   T
  9.5950356531369252  6.8535968950978043  5.4661181370586824   F   F   F
  8.2243162741173581  8.2243162741173581  1.3539600000000025   F   F   F
  6.8535968950978043  9.5950356531369252  5.4661181370586860   F   F   F
  5.4828775160782453  5.4828775160782453  1.3539600000000025   F   F   F
  9.5950356531369252  9.5950356531369252  2.7246793790195625   F   F   F
  8.2243162741173581  5.4828775160782453  4.0953987580391233   F   F   F
  6.8535968950978043  6.8535968950978043  2.7246793790195625   F   F   F
  5.4828775160782461  8.2243162741173581  4.0953987580391233   F   F   F
  9.5782909878728013  6.8709103510671845 11.0255834734178801   T   T   T
  8.2228746698833710  8.2242388645233682  6.8545266496612562   T   T   T
  6.8633610773092117  9.5771958301020739 11.0048075680648729   T   T   T
  5.4803823992010177  5.4819382624570689  6.8551624845654588   T   T   T
  9.5930822088493777  9.5960426851827005  8.2417456961983167   T   T   T
  8.2226077745921113  5.4895527154022528  9.6305943739046374   T   T   T
  6.8489419280228585  6.8542282507115342  8.2409486368020595   T   T   T
 10.9581934782865602  8.2254023696300180  9.6328068338605437   T   T   T
  7.4204293766720157  3.5478998318520545 16.0818731692151680   T   T   T
  8.2092527970163882  8.2330394894972869 12.4373369269479479   T   T   T
  7.3726834882470049  9.0700669074242324 16.3935335832971454   T   T   T
 10.9729763671493679  5.5031586299599100 12.3773314246586192   T   T   T
  9.5874957932683831  9.6444030458575067 13.8355731710466650   T   T   T
  8.2552300382249655  5.5917701267107134 15.2271797848390094   T   T   T
  6.7994704415026792  6.8499911086153054 13.8359692504301197   T   T   T
 10.8369081784677448  8.1895263400093654 15.2429516564206953   T   T   T
  9.5950356531369270 12.3364744111760647  5.4661181370586824   F   F   F
  8.2243162741173670 13.7071937901956087  1.3539600000000025   F   F   F
  6.8535968950978052 15.0779131692151687  5.4661181370586860   F   F   F
  5.4828775160782461 10.9657550321564905  1.3539600000000025   F   F   F
  9.5950356531369270 15.0779131692151687  2.7246793790195625   F   F   F
  8.2243162741173670 10.9657550321564905  4.0953987580391233   F   F   F
  6.8535968950978052 12.3364744111760647  2.7246793790195625   F   F   F
  5.4828775160782461 13.7071937901956087  4.0953987580391233   F   F   F
  9.5939203392192951 12.3381186677099635 11.0054344291888917   T   T   T
  8.2258392089645795 13.7095237299402868  6.8581100191221847   T   T   T
  6.8676654036771048 15.0718233451526444 11.0231241187866154   T   T   T
  5.4819239852364410 10.9662692782887881  6.8568007888658418   T   T   T
  9.5984909951878876 15.0815855822344691  8.2478190742721527   T   T   T
  8.2223461370650419 10.9640393066490223  9.6261730361016333   T   T   T
  6.8524987617193434 12.3377623500124951  8.2447586361357956   T   T   T
 10.9721263101173054 13.7122836633614575  9.6334985137392835   T   T   T
  7.4510558906868880 14.5064527263508598 16.0818731692151680   T   T   T
  8.2479888432621831 13.7025075382219974 12.4090768239083840   T   T   T
  9.1029339216296616 12.8152643717618240 16.7818731692151708   T   T   T
 10.9494851603109371 10.9685898800982944 12.3944588994287610   T   T   T
  9.6623567499285166 15.0603760234438599 13.8313597853690826   T   T   T
  8.2474644407782591 11.0198636161474539 15.2842811766105626   T   T   T
  6.8616415309314309 12.2888104151690349 13.7747094359243114   T   T   T
 10.9613042833002563 13.7001238796532068 15.3888110015762880   T   T   T
 15.0779131692151687  1.3707193790195613  5.4661181370586824   F   F   F
 13.7071937901956087  2.7414387580391226  1.3539600000000025   F   F   F
 12.3364744111760647  4.1121581370586826  5.4661181370586860   F   F   F
 10.9657550321564905  0.0000000000000000  1.3539600000000025   F   F   F
 15.0779131692151687  4.1121581370586826  2.7246793790195625   F   F   F
 13.7071937901956087  0.0000000000000002  4.0953987580391233   F   F   F
 12.3364744111760647  1.3707193790195613  2.7246793790195625   F   F   F
 10.9657550321564905  2.7414387580391226  4.0953987580391233   F   F   F
 15.0840426497285680  1.3718670662658803 11.0469259181566262   T   T   T
 13.7073988755140892  2.7409770704026104  6.8593959170048899   T   T   T
 12.3478068316973548  4.1032179812818406 11.0369417396224083   T   T   T
 10.9682209200442635  0.0025146176126787  6.8582507278557161   T   T   T
 15.0788689913300491  4.1090185650809428  8.2517843061422571   T   T   T
 13.7145634331561670  0.0048194006998386  9.6458568216292200   T   T   T
 12.3398654518668813  1.3699925764341374  8.2526129510941573   T   T   T
  0.0001381122934482  2.7419940622272310  9.6498249042501048   T   T   T
 12.9495358345669853  3.5278674296647292 16.0818731692151680   T   T   T
 13.7196462571421911  2.7364465904493342 12.4441770338966471   T   T   T
 14.6047873193934485  1.8509081137669487 16.7818731692151708   T   T   T
 -0.0005635888391153  0.0034638805232043 12.4451882016985511   T   T   T
 15.0928946601795815  4.1412127832763552 13.8598393461622091   T   T   T
 13.7043022331252420 -0.0038005665172868 15.4013819611029064   T   T   T
 12.3541133885200907  1.3013693764104026 13.8380014201683377   T   T   T
 -0.0873184118052094  2.7010105518678453 15.2732426341992227   T   T   T
 15.0779131692151687  6.8535968950978043  5.4661181370586824   F   F   F
 13.7071937901956087  8.2243162741173581  1.3539600000000025   F   F   F
 12.3364744111760647  9.5950356531369252  5.4661181370586860   F   F   F
 10.9657550321564905  5.4828775160782453  1.3539600000000025   F   F   F
 15.0779131692151687  9.5950356531369252  2.7246793790195625   F   F   F
 13.7071937901956087  5.4828775160782453  4.0953987580391233   F   F   F
 12.3364744111760647  6.8535968950978043  2.7246793790195625   F   F   F
 10.9657550321564905  8.2243162741173581  4.0953987580391233   F   F   F
 15.0719889590359344  6.8469327516264391 11.0246096709360462   T   T   T
 13.7053477841731208  8.2233385133271995  6.8577664652321779   T   T   T
 12.3273724886283826  9.5941072820251456 11.0212451337423580   T   T   T
 10.9655225475745208  5.4822356346691326  6.8555240027444064   T   T   T
 15.0738095381900870  9.5974326175814433  8.2479297794506365   T   T   T
 13.7037287237061882  5.4777762705456468  9.6365250379314240   T   T   T
 12.3329755810294017  6.8521664035642171  8.2472656643529660   T   T   T
 -0.0078055339227770  8.2205898684558818  9.6329131253222062   T   T   T
 12.8943462902356778  8.9884407008453202 16.0818731692151680   T   T   T
 13.6869256135475172  8.2131310254391163 12.4028840779973510   T   T   T
 14.5845010611707568  7.3359949853188402 16.7818731692151708   T   T   T
  0.0014019238437206  5.4736614743044418 12.4086006426629094   T   T   T
 15.0996582744040744  9.5993891175931481 13.7615164454345820   T   T   T
 13.7471313979765473  5.5899020344820487 15.2426108763152008   T   T   T
 12.2948795154970956  6.8578116705017997 13.8399390725983924   T   T   T
 -0.1212525136636273  8.1763877610294937 15.2318546080679180   T   T   T
 15.0779131692151687 12.3364744111760647  5.4661181370586824   F   F   F
 13.7071937901956087 13.7071937901956087  1.3539600000000025   F   F   F
 12.3364744111760647 15.0779131692151687  5.4661181370586860   F   F   F
 10.9657550321564905 10.9657550321564905  1.3539600000000025   F   F   F
 15.0779131692151687 15.0779131692151687  2.7246793790195625   F   F   F
 13.7071937901956087 10.9657550321564905  4.0953987580391233   F   F   F
 12.3364744111760647 12.3364744111760647  2.7246793790195625   F   F   F
 10.9657550321564905 13.7071937901956087  4.0953987580391233   F   F   F
 15.0522552591924921 12.3623730905165736 11.0326779965896939   T   T   T
 13.7074336149755034 13.7082632054180991  6.8571227673932844   T   T   T
 12.3531746935481124 15.0708499895952777 11.0263874717115975   T   T   T
 10.9655886731854189 10.9662737340362924  6.8560358180462391   T   T   T
 15.0764518130606913 15.0821944411410414  8.2481581009486025   T   T   T
 13.7020217223551182 10.9707049515106441  9.6396940637569077   T   T   T
 12.3349974428816402 12.3378589694954748  8.2457333663406374   T   T   T
 -0.0061154672737949 13.7141516254891709  9.6406577797861708   T   T   T
 12.8176964985793820 14.5807387699052100 16.7818731692151708   T   T   T
 13.7038277336116696 13.7322871620151012 12.4670694405151572   T   T   T
 14.5014931948174475 12.9340930814606114 16.0818731692151680   T   T   T
 -0.0063421960984931 10.9704023742244310 12.3574821761403602   T   T   T
 15.0983151673860458 15.1203837478756835 13.9149189823295139   T   T   T
 13.6959365488411819 10.9616689504294591 15.0764287615453583   T   T   T
 12.2575707517947912 12.3466125375349627 13.8278957664502364   T   T   T
  0.1150128958643696 13.7521424978265205 15.2508408771455652   T   T   T
