H  C  Ni
 1.0000000000000000
    15.0000000000000000    0.0000000000000000    0.0000000000000000
     0.0000000000000000   15.0000000000000000    0.0000000000000000
     0.0000000000000000    0.0000000000000000   15.0000000000000000
 H   C   Ni 
  10   8   1
Cartesian
  2.2983866985507930  0.1698200001798105  1.4843609285027175
  0.7064084180225311  2.2887340354954713  2.0196634408042322
 -1.8637677752639581  1.4766091857705002  1.7953516015243005
 -1.8535573198055761 -1.1627070155523824  1.2131837726960339
  0.7140708634824150 -1.9789089193533047  1.0812546756844243
 -2.1560019129436516  1.1341011706886295 -1.3635055548259545
 -1.2081535435994879 -0.3299795135803635 -1.9999279400755350
  0.0044756271215100  2.4548711494090352 -1.9784036060450025
  1.1989975011719070 -0.3374111550104715 -2.0057166624645975
  2.1575610031424386  1.1195618610613696 -1.3695577302872941
  1.2144923804408685  0.1771602270148455  1.4576752181869095
  0.3726295097057550  1.2945698550842986  1.7410242568987575
 -0.9839820026399310  0.8660824215582120  1.6215952550742014
 -0.9808429450912425 -0.5268948765757935  1.3130882818798710
  0.3786783304582080 -0.9597655889072805  1.2407922580700461
 -1.1922495233448900  0.6554752810376520 -1.5218002852783470
  0.0014658149307945  1.4156781445869977 -1.6700478103084200
  1.1904531575728050  0.6472405741040506 -1.5257836767781259
  0.0009357180887535  0.4457631629887155 -0.0832464232581585
