H  C  Ni
 1.0000000000000000
    24.4543886114944407    0.0000000000000000    0.0000000000000000
     0.0000000000000000   24.4337800687623385    0.0000000000000000
     0.0000000000000000    0.0000000000000000   24.0253801032688301
 H   C   Ni 
  10   8   1
Cartesian
 14.3910808533969270 11.9249963852230358 13.8865543080415144
 12.9780944432993266 14.2273282409223913 13.8820818101277954
 10.3543169704106894 13.5868183731536458 13.6488766183968639
 10.1759235759723818 10.8951569650598490 13.5120763059334532
 12.6592405228068827  9.8873032901642866 13.6791504024733825
 10.0811399719446513 13.1845201712335065 10.2627199780416323
 10.9181810896061844 11.6400108955231154  9.7533321870012948
 12.2036948845179953 14.4651600888879326 10.0249352683313742
 13.5616538648952041 11.6624409485816880  9.8284721666242767
 14.3403267256361584 13.2272450501285643 10.3688230205279783
 13.3105364908224324 12.0146054539349425 13.8190757622147551
 12.5660826180810403 13.2253228232760467 13.8064317646382477
 11.1857178101169588 12.8884546535534295 13.6851072854073283
 11.0900199880677235 11.4714819632569487 13.6238632348614850
 12.3971682378351034 10.9407961238209648 13.7107385459234727
 11.0269548737180010 12.6512649779967923 10.1543494041986282
 12.2172487504234883 13.3802560446151446  9.9895859307300974
 13.4115155722609245 12.6742212675753763 10.2154119311410483
 12.1724200859066922 12.5242429920405769 11.7365129535042900
