Hf2 O4
1.0
   3.5580193300000000    0.0000000000000000    0.0000000000000002
  -0.0000000000000002    3.5580193300000000    0.0000000000000002
   0.0000000000000000    0.0000000000000000    5.1718612100000003
Hf O
2 4
direct
   0.5000000000000000    0.5000000000000000    0.5000000000000000 Hf4+
   0.0000000000000000    0.0000000000000000    0.0000000000000000 Hf4+
   0.0000000000000000    0.5000000000000000    0.6972078800000000 O2-
   0.5000000000000000    0.0000000000000000    0.8027921200000000 O2-
   0.5000000000000000    0.0000000000000000    0.3027921200000000 O2-
   0.0000000000000000    0.5000000000000000    0.1972078800000000 O2-
