H  C  N  O 
 1.0000000000000000
    25.8265159749297872    0.0000000000000000    0.0000000000000000
     0.0000000000000000   25.5468315915352910    0.0000000000000000
     0.0000000000000000    0.0000000000000000   23.4830061377327368
 H   C   N   O  
  13   5   1   2
Cartesian
 13.4133485881638457 12.6908733177377968 10.5574691835953907
  9.9226361189021048 12.8401307417810902 12.0690809443142228
 10.4264615424761100 12.6388051315717700 10.3802367764576111
 11.1214070412360506 11.5811831374310223 11.6468788418368607
 12.3393029663509370 15.5836513407611097 11.7699492775257823
 11.4012020192248791 15.1285096552937155 10.3190346305634453
 10.5920157403559347 15.1968745030039400 11.8960282503380412
 15.3791637280268390 11.9007405586868504 12.4572390267690718
 14.5651285730803188 10.7196071633338974 11.3754416509003704
 14.4976100823529244 10.4978652488318325 13.1471150470123312
 15.7162344214203884 13.4511952270050408 10.7604502005257601
 15.7901034889391116 15.0893349093488851 11.4838343579712934
 14.7441703211400768 14.7785264632005617 10.0641351737507385
 13.1852567914814820 13.0646766493864952 11.5822932563376639
 10.7836869331475658 12.5998695340379019 11.4293586346349549
 11.5381318207059778 14.9356355530558957 11.4033592492989779
 14.5068585344541567 11.2391906167934099 12.3454150824373805
 15.1393085569580208 14.3564556596342818 11.0020455416966012
 11.8476878481955250 13.5501981871402712 11.6784098422808214
 13.2897946883016207 11.9805275983549606 12.4781743076371523
 14.0927929971918733 14.0828447385298894 11.9366146350258440
