NbO2 rutile (P42/mnm #136)
1.0
   4.8360000000000003    0.0000000000000000    0.0000000000000003
   0.0000000000000008    4.8360000000000003    0.0000000000000003
   0.0000000000000000    0.0000000000000000    2.9900000000000002
Nb O
2 4
direct
   0.0000000000000000    0.0000000000000000    0.0000000000000000 Nb
   0.5000000000000000    0.5000000000000000    0.5000000000000000 Nb
   0.3045000000000000    0.3045000000000000    0.0000000000000000 O
   0.1955000000000000    0.8045000000000000    0.5000000000000000 O
   0.8045000000000000    0.1955000000000000    0.5000000000000000 O
   0.6955000000000000    0.6955000000000000    0.0000000000000000 O
