NbO bulk (Pm-3m #221)
1.0
   4.2099000000000002    0.0000000000000000    0.0000000000000000
   0.0000000000000000    4.2099000000000002    0.0000000000000000
   0.0000000000000000    0.0000000000000000    4.2099000000000002
Nb O
3 3
direct
   0.5000000000000000    0.0000000000000000    0.0000000000000000 Nb
   0.0000000000000000    0.5000000000000000    0.0000000000000000 Nb
   0.0000000000000000    0.0000000000000000    0.5000000000000000 Nb
   0.0000000000000000    0.5000000000000000    0.5000000000000000 O
   0.5000000000000000    0.0000000000000000    0.5000000000000000 O
   0.5000000000000000    0.5000000000000000    0.0000000000000000 O
