F  P  Ni
 1.0000000000000000
    25.1684817423447882    0.0000000000000000    0.0000000000000000
     0.0000000000000000   25.1684817423447882    0.0000000000000000
     0.0000000000000000    0.0000000000000000   25.1684817423447882
 F   P   Ni 
  12   4   1
Cartesian
 13.9258355476058640 15.3256008426867112 13.8409169593326045
 11.9101478219888026 14.7235601134070926 14.9769341626949135
 13.9339876582893698 13.5392360531290503 15.4401581663337328
 13.9259201649157731  9.8430569484019568 11.3277104230066286
 11.9102086558539977 10.4450299558463549 10.1917004572728729
 13.9340087425836785 11.6294213567169642  9.7284692374397519
 11.2483093184589205 13.8369849485616108  9.8374743284308455
 11.2280045953995522 15.4350913858636591 11.6247612462161989
 13.2578831392041003 14.9783867984618073 10.4467669596098158
 11.2483615877307059 11.3315834942803253 15.3311640436992178
 11.2281007577553709  9.7334758461762014 13.5438766181757995
 13.2579694162724433 10.1902479787237930 14.7218617974972901
 13.0908216727978619 14.0227344139714631 14.1871113780325526
 13.0908642875766059 11.1458939660838503 10.9815208699504705
 12.0771796728933012 14.1852387451673838 11.1437862857823706
 12.0772398609286569 10.9833577241001095 14.0248493739472817
 12.5839944700626791 12.5843062661557745 12.5843164201919056
