F  P  Ni
 1.0000000000000000
    25.1684817423447882    0.0000000000000000    0.0000000000000000
     0.0000000000000000   25.1684817423447882    0.0000000000000000
     0.0000000000000000    0.0000000000000000   25.1684817423447882
 F   P   Ni 
  12   4   1
Cartesian
 14.1793240364687581 15.1684817423447882 13.1901663305927297
 13.1901663305927279 14.1793240364687581 15.1684817423447882
 15.1684817423447882 13.1901663305927279 14.1793240364687581
 14.1793240364687581 10.0000000000000000 11.9783154117520585
 13.1901663305927279 10.9891577058760301 10.0000000000000000
 15.1684817423447882 11.9783154117520603 10.9891577058760301
 10.9891577058760301 13.1901663305927297 10.0000000000000000
 10.0000000000000000 14.1793240364687581 11.9783154117520585
 11.9783154117520585 15.1684817423447882 10.9891577058760301
 10.9891577058760301 11.9783154117520585 15.1684817423447882
 10.0000000000000000 10.9891577058760301 13.1901663305927297
 11.9783154117520585 10.0000000000000000 14.1793240364687581
 13.7678089230111276 13.7678089230111276 13.7678089230111276
 13.7678089230111276 11.4006728193336606 11.4006728193336606
 11.4006728193336606 13.7678089230111276 11.4006728193336606
 11.4006728193336606 11.4006728193336606 13.7678089230111276
 12.5842408711723941 12.5842408711723941 12.5842408711723941
