Si
 1.0000000000000000
     5.4630506905777994    0.0000000000000000    0.0000000000000000
     0.0000000000000000    5.4630506905777994    0.0000000000000000
     0.0000000000000000    0.0000000000000000    5.4630506905777994
 Si 
   8
Cartesian
  4.0972880179134776  4.0972880174523718  1.3657626750345029
 -0.0000000010435823  2.7315253465761127  2.7315253424909423
  4.0972880177028150  1.3657626746033795  4.0972880236543761
 -0.0000000004046311 -0.0000000034401587 -0.0000000060682324
  1.3657626702893142  4.0972880194690520  4.0972880226319672
  2.7315253473035490  2.7315253455996960 -0.0000000041706676
  1.3657626708816897  1.3657626748846268  1.3657626751066518
  2.7315253476572421 -0.0000000034975833  2.7315253435136175
