Si O 
 1.0000000000000000
     5.0426016958590854    0.0000000000000000    0.0000000000000000
     0.0000000000000000    5.0426016958590854    0.0000000000000000
     0.0000000000000000    0.0000000000000000    7.3828177360546716
 Si  O  
   4   8
Cartesian
 -0.0000000128010164 -0.0000000018596631  0.0000150373952611
  2.5213008375385781 -0.0000000222581544  5.5370982817766023
  2.5213008556008076  2.5213008608331626  3.6914239170424645
 -0.0000000171250779  2.5213008613678882  1.8456893822151388
  2.9703114739722949  3.7819512577071119  4.6142610772139179
  3.7819512915088409  0.4491347584386194  6.4599655248209960
  1.2606504419246847  4.5934669221024080  6.4599655070795494
  2.0722902106928354  1.2606504278667450  4.6142610778103288
  0.4490106314689157  1.2606504800907408  0.9228522114585255
  1.2606504245681873  2.9704356366362399  2.7685566568194124
  3.7819512915698956  2.0721660741389827  2.7685566598697218
  4.5935910598039378  3.7819512656405041  0.9228522324472491
