B-Ta2O5 (C2/m #12)
1.0
  12.3502862937265885    0.0000000000000000   -3.2861570965170168
   0.0000000000000008    4.9000000000000004    0.0000000000000003
   0.0000000000000000    0.0000000000000000    5.5899999999999999
Ta O
8 20
direct
   0.1610000000000000    0.0000000000000000    0.1780000000000000 Ta
   0.6610000000000000    0.5000000000000000    0.1780000000000000 Ta
   0.8390000000000000    0.0000000000000000    0.8220000000000001 Ta
   0.3390000000000000    0.5000000000000000    0.8220000000000001 Ta
   0.3400000000000000    0.0000000000000000    0.6700000000000000 Ta
   0.8400000000000000    0.5000000000000000    0.6700000000000000 Ta
   0.6599999999999999    0.0000000000000000    0.3300000000000000 Ta
   0.1600000000000000    0.5000000000000000    0.3300000000000000 Ta
   0.0500000000000000    0.0000000000000000    0.2830000000000000 O
   0.5500000000000000    0.5000000000000000    0.2830000000000000 O
   0.9500000000000000    0.0000000000000000    0.7170000000000001 O
   0.4500000000000000    0.5000000000000000    0.7170000000000001 O
   0.2500000000000000    0.0000000000000000    0.4230000000000000 O
   0.7500000000000000    0.5000000000000000    0.4230000000000000 O
   0.7500000000000000    0.0000000000000000    0.5770000000000000 O
   0.2500000000000000    0.5000000000000000    0.5770000000000000 O
   0.4150000000000000    0.0000000000000000    0.1600000000000000 O
   0.9150000000000000    0.5000000000000000    0.1600000000000000 O
   0.5850000000000000    0.0000000000000000    0.8400000000000000 O
   0.0850000000000000    0.5000000000000000    0.8400000000000000 O
   0.0800000000000000    0.0000000000000000    0.8300000000000000 O
   0.5800000000000000    0.5000000000000000    0.8300000000000000 O
   0.9200000000000000    0.0000000000000000    0.1700000000000000 O
   0.4200000000000000    0.5000000000000000    0.1700000000000000 O
   0.0000000000000000    0.0000000000000000    0.0000000000000000 O
   0.5000000000000000    0.5000000000000000    0.0000000000000000 O
   0.0000000000000000    0.0000000000000000    0.5000000000000000 O
   0.5000000000000000    0.5000000000000000    0.5000000000000000 O
