Ti Cl
 1.0000000000000000
    15.0000000000000000    0.0000000000000000    0.0000000000000000
     0.0000000000000000   15.0000000000000000    0.0000000000000000
     0.0000000000000000    0.0000000000000000   15.0000000000000000
 Ti  Cl 
   1   4
Cartesian
  7.5000000000000000  7.5000000000000000  7.5000000000000000
  8.7586235868333837  8.7586235868333837  8.7586235868333837
  8.7586235868333837  6.2413764131666154  6.2413764131666154
  6.2413764131666154  8.7586235868333837  6.2413764131666154
  6.2413764131666154  6.2413764131666154  8.7586235868333837
