Ti N  Ti N  Ti N  Ti N  Ti N  Ti N  Ti N  Ti N  Ti N  Ti N  Ti N  Ti N  Ti N  Ti N  Ti N  Ti N 
 1.0000000000000000
     5.9962655044619231    0.0000000000000000    0.0000000000000000
     2.9981327522309620    5.1929182547003370    0.0000000000000000
     0.0000000000000000    0.0000000000000000   28.5678779947740438
 Ti  N   Ti  N   Ti  N   Ti  N   Ti  N   Ti  N   Ti  N   Ti  N   Ti  N   Ti  N   Ti  N   Ti  N   Ti  N   Ti  N   Ti  N   Ti  N  
   1   1   1   1   1   1   1   1   1   1   1   1   1   1   1   1   1   1   1   1   1   1   1   1   1   1   1   1   1   1   1   1
Cartesian
  0.0000000000000000  0.0000000000000000 10.0000000000000000
  1.4990663761154810  0.8654863757833895 11.2239825706820060
  2.9981327522309620  1.7309727515667792 12.4479651413640138
  0.0000000000000008  0.0000000000000003 13.6719477120460198
  1.4990663761154814  0.8654863757833898 14.8959302827280275
  2.9981327522309620  1.7309727515667794 16.1199128534100353
  0.0000000000000005  0.0000000000000009 17.3438954240920395
  1.4990663761154819  0.8654863757833905 18.5678779947740438
  1.4990663761154810  2.5964591273501685 10.0000000000000000
  2.9981327522309620  3.4619455031335580 11.2239825706820060
  4.4971991283464430  4.3274318789169479 12.4479651413640138
  1.4990663761154819  2.5964591273501689 13.6719477120460198
  2.9981327522309624  3.4619455031335584 14.8959302827280275
  4.4971991283464430  4.3274318789169479 16.1199128534100353
  1.4990663761154814  2.5964591273501694 17.3438954240920395
  2.9981327522309629  3.4619455031335589 18.5678779947740438
  2.9981327522309615  0.0000000000000000 10.0000000000000000
  4.4971991283464430  0.8654863757833895 11.2239825706820060
  5.9962655044619240  1.7309727515667792 12.4479651413640138
  2.9981327522309624  0.0000000000000003 13.6719477120460198
  4.4971991283464430  0.8654863757833898 14.8959302827280275
  5.9962655044619240  1.7309727515667794 16.1199128534100353
  2.9981327522309620  0.0000000000000009 17.3438954240920395
  4.4971991283464430  0.8654863757833905 18.5678779947740438
  4.4971991283464430  2.5964591273501685 10.0000000000000000
  5.9962655044619240  3.4619455031335580 11.2239825706820060
  7.4953318805774050  4.3274318789169479 12.4479651413640138
  4.4971991283464439  2.5964591273501689 13.6719477120460198
  5.9962655044619240  3.4619455031335584 14.8959302827280275
  7.4953318805774050  4.3274318789169479 16.1199128534100353
  4.4971991283464439  2.5964591273501694 17.3438954240920395
  5.9962655044619249  3.4619455031335589 18.5678779947740438
