Zr2 O4
1.0
   3.6000000000000001    0.0000000000000000    0.0000000000000002
   0.0000000000000006    3.6000000000000001    0.0000000000000002
   0.0000000000000000    0.0000000000000000    5.2300000000000004
Zr O
2 4
direct
   0.5000000000000000    0.5000000000000000    0.5000000000000000 Zr
   0.0000000000000000    0.0000000000000000    0.0000000000000000 Zr
   0.5000000000000000    0.0000000000000000    0.1982250000000000 O
   0.5000000000000000    0.0000000000000000    0.6982250000000000 O
   0.0000000000000000    0.5000000000000000    0.3017750000000000 O
   0.0000000000000000    0.5000000000000000    0.8017750000000000 O
