H  Si
 1.0000000000000000
    10.9261013811555987    0.0000000000000000    0.0000000000000000
     0.0000000000000000   10.9261013811555987    0.0000000000000000
     0.0000000000000000    0.0000000000000000   45.0233894016878224
 H   Si 
  16  96
Selective dynamics
Cartesian
  3.2433293004357449  0.5118039616829883  0.5000000038189714   F   F   F
  8.7063799910135451  5.9748546522607890  0.5000000038189711   F   F   F
  3.2433293004357449  5.9748546522607890  0.5000000038189714   F   F   F
  8.7063799910135451  0.5118039616829880  0.5000000038189711   F   F   F
  5.9748546522429908  3.2433293098327374  0.5000000000000000   F   F   F
  0.5118039616651919  3.2433293098327374  0.5000000000000000   F   F   F
  5.9748546522429908  8.7063800004105367  0.5000000000000006   F   F   F
  0.5118039616651918  8.7063800004105367  0.5000000000000002   F   F   F
  4.9512467379427942  2.2197213941894178  0.5000000130961536   F   F   F
  4.9512467379427942  7.6827720847672172  0.5000000130961536   F   F   F
 10.4142974285205945  2.2197213941894178  0.5000000130961539   F   F   F
 10.4142974285205945  7.6827720847672172  0.5000000130961539   F   F   F
  7.6827720847494207  4.9512467473397868  0.5000000164938015   F   F   F
  2.2197213941716214  4.9512467473397868  0.5000000164938015   F   F   F
  7.6827720847494207 10.4142974379175861  0.5000000164938012   F   F   F
  2.2197213941716210 10.4142974379175861  0.5000000164938015   F   F   F
  4.0972880174523718  1.3657626750345029  1.3539600084575627   F   F   F
  2.7315253465761127  2.7315253424909418  2.7197226800783043   F   F   F
  1.3657626746033795  4.0972880236543761  1.3539600082469008   F   F   F
  5.4630506871376410  5.4630506845095672  2.7197226807172523   F   F   F
  4.0972880194690520  4.0972880226319672  4.0854853514111955   F   F   F
  2.7315253455996960  5.4630506864071320  5.4512480284254314   F   F   F
  1.3657626748846268  1.3657626751066518  4.0854853520035714   F   F   F
  5.4630506870802158  2.7315253435136171  5.4512480287791254   F   F   F
  4.0972880073520246  1.3657626501499216  6.8166191969127237   T   T   T
  2.7312058879657921  2.7318646827299014  8.1845862996860337   T   T   T
  1.3657626596796930  4.0972880184384923  6.8167277360986418   T   T   T
  5.4633956758265150  5.4626914492017269  8.1870846340428312   T   T   T
  4.0962142221252558  4.0961980734987220  9.5557442827029924   T   T   T
  2.7357762009953701  5.4671726909111245 10.9223061839773319   T   T   T
  1.3668695360295395  1.3668379041773240  9.5557908764123258   T   T   T
  5.4538615211952202  2.7224660130832432 10.9217987652717703   T   T   T
  4.0972880024918936  1.3657626462434675 12.3033613258649996   T   T   T
  2.7075664778037889  2.7544722919651590 13.6796570120958183   T   T   T
  1.3657626253271178  4.0972880222784704 12.2714376926337199   T   T   T
  5.4878697202861746  5.4372834254651075 13.6718741038076246   T   T   T
  4.0969782887069757  4.1004196999033722 15.0484218661941362   T   T   T
  4.9644419131588577  2.2360706144402118 16.2661262980709509   T   T   T
  1.3653331394781585  1.3612892548814000 15.0481163148019110   T   T   T
  3.2283766044513804  5.9636367928114575 16.2602037849366248   T   T   T
  4.0972880174523718  6.8288133656123025  1.3539600084575627   F   F   F
  2.7315253465761127  8.1945760330687420  2.7197226800783043   F   F   F
  1.3657626746033795  9.5603387142321754  1.3539600082469008   F   F   F
  5.4630506871376410 -0.0000000060682318  2.7197226807172523   F   F   F
  4.0972880194690520  9.5603387132097666  4.0854853514111955   F   F   F
  2.7315253455996960 -0.0000000041706670  5.4512480284254314   F   F   F
  1.3657626748846268  6.8288133656844510  4.0854853520035714   F   F   F
  5.4630506870802158  8.1945760340914173  5.4512480287791254   F   F   F
  4.0972880339373967  6.8288133318809106  6.8182704442583377   T   T   T
  2.7311803143828564  8.1949353168522219  8.1870846243344211   T   T   T
  1.3657626685203226  9.5603387112169944  6.8182211081617412   T   T   T
  5.4633701425431793 10.9257620590689370  8.1845862983379583   T   T   T
  4.0983617947629618  9.5614286720540314  9.5557443143050147   T   T   T
  2.7407145255030692  0.0090593251175419 10.9217987385890805   T   T   T
  1.3646557652527400  6.8277381014708123  9.5557908800580922   T   T   T
  5.4587998457288895  8.1904540312184810 10.9223062174708492   T   T   T
  4.0972880552778941  6.8288133497349168 12.2961770098147589   T   T   T
  2.7067063618329308  8.2203432358346848 13.6718740011397433   T   T   T
  1.3657627145445455  9.5603387775977104 12.2614872548216916   T   T   T
  5.4870095873203883 10.9031543878968904 13.6796570806260274   T   T   T
  4.0975977334261513  9.5572068760448499 15.0484218352523342   T   T   T
  4.9661994432704146  7.6939897713316272 16.2602036790477058   T   T   T
  1.3661921089089168  6.8332868246244960 15.0481163246801017   T   T   T
  3.2301338217030073  0.4954543801228405 16.2661263102360145   T   T   T
  9.5603387080301712  1.3657626750345029  1.3539600084575627   F   F   F
  8.1945760371539116  2.7315253424909418  2.7197226800783043   F   F   F
  6.8288133651811789  4.0972880236543761  1.3539600082469008   F   F   F
 -0.0000000034401592  5.4630506845095672  2.7197226807172523   F   F   F
  9.5603387100468513  4.0972880226319672  4.0854853514111955   F   F   F
  8.1945760361774944  5.4630506864071320  5.4512480284254314   F   F   F
  6.8288133654624268  1.3657626751066518  4.0854853520035714   F   F   F
 -0.0000000034975845  2.7315253435136171  5.4512480287791254   F   F   F
  9.5603386979220470  1.3657626629405641  6.8182704692929805   T   T   T
  8.1942310211315643  2.7318846382055599  8.1870846422661696   T   T   T
  6.8288133770813291  4.0972880139400960  6.8182210977153161   T   T   T
  0.0003195018536693  5.4627113373226317  8.1845863306217748   T   T   T
  9.5614124854589555  4.0983779808751297  9.5557443070094443   T   T   T
  8.2037652262857694  5.4721100329460075 10.9217987980481315   T   T   T
  6.8277064801279623  1.3646873913631574  9.5557908630032795   T   T   T
 10.9218504835068480  2.7274033852158399 10.9223062005900626   T   T   T
  9.5603387039209373  1.3657626984206854 12.2961769854067633   T   T   T
  8.1697570092696363  2.7572925839883946 13.6718741026483102   T   T   T
  6.8288133507426991  4.0972879781199278 12.2614872801502699   T   T   T
  0.0239588465650839  5.4401037465451756 13.6796570816214160   T   T   T
  9.5606484000308143  4.0941563838695902 15.0484219801483476   T   T   T
 10.4292501146508929  2.2309393198291212 16.2602037984694974   T   T   T
  6.8292429126463228  1.3702359752461415 15.0481163126247797   T   T   T
  8.6931848384664132  5.9585054522580032 16.2661262257449799   T   T   T
  9.5603387080301712  6.8288133656123025  1.3539600084575627   F   F   F
  8.1945760371539116  8.1945760330687420  2.7197226800783043   F   F   F
  6.8288133651811789  9.5603387142321754  1.3539600082469008   F   F   F
 -0.0000000034401592 -0.0000000060682318  2.7197226807172523   F   F   F
  9.5603387100468513  9.5603387132097666  4.0854853514111955   F   F   F
  8.1945760361774944 -0.0000000041706670  5.4512480284254314   F   F   F
  6.8288133654624268  6.8288133656844510  4.0854853520035714   F   F   F
 -0.0000000034975845  8.1945760340914173  5.4512480287791254   F   F   F
  9.5603386998370468  6.8288133711292689  6.8166191656047328   T   T   T
  8.1942565240485905  8.1949153720687598  8.1845863230976743   T   T   T
  6.8288133717356674  9.5603387063820371  6.8167277402363222   T   T   T
  0.0003450415377930 10.9257420992397289  8.1870846600740563   T   T   T
  9.5592649135666896  9.5592487493014122  9.5557443355648832   T   T   T
  8.1988269085239338  0.0041219431121607 10.9223062274275975   T   T   T
  6.8299202445868792  6.8298886177467404  9.5557908631599791   T   T   T
 10.9169121877734820  8.1855167227577095 10.9217987215812720   T   T   T
  9.5603386422970544  6.8288133639475976 12.3033613371368524   T   T   T
  8.1706171425582124  8.2175229770215434 13.6796571388648527   T   T   T
  6.8288134086787142  9.5603387153049439 12.2714377395917484   T   T   T
  0.0248190079715420 10.9003341840582220 13.6718740221984874   T   T   T
  9.5600290697845978  9.5634704565136452 15.0484219782893067   T   T   T
 10.4274928339537123  7.6991216008909467 16.2661263014115747   T   T   T
  6.8283839067258150  6.8243399473434012 15.0481163942046035   T   T   T
  8.6914273477805928  0.5005861576947762 16.2602037182060037   T   T   T
