H  O  Si
 1.0000000000000000
    10.0852033917181707    0.0000000000000000    0.0000000000000000
     0.0000000000000000   10.0852033917181707    0.0000000000000000
     0.0000000000000000    0.0000000000000000   44.7656354721093379
 H   O   Si 
   8  64  36
Selective dynamics
Cartesian
  8.9475317155783074  5.4478104930962017  0.5000000023767337   F   F   F
  8.9475317155783074  0.4052087972371159  0.5000000023767335   F   F   F
  3.9049300197192207  0.4052087972371166  0.5000000023767355   F   F   F
  3.9049300197192203  5.4478104930962017  0.5000000023767355   F   F   F
  6.1802733360108570  9.6799945666105014  0.5000000000000000   F   F   F
  6.1802733360108570  4.6373928707514160  0.5000000000000000   F   F   F
  1.1376716401517730  9.6799945666105014  0.5000000000000016   F   F   F
  1.1376716401517730  4.6373928707514160  0.5000000000000018   F   F   F
  2.9703114739722949  3.7819512577071119  5.9682060410070203   F   F   F
  3.7805485654242581  0.4440566113466808  7.8173396025572961   T   T   T
  1.2617480081062316  4.5955616371044430  7.8167028507335852   T   T   T
  2.0722902106928354  1.2606504278667450  5.9682060416034357   F   F   F
  0.4490106314689157  1.2606504800907408  2.2767971752516325   F   F   F
  1.2606504245681873  2.9704356366362399  4.1225016206125158   F   F   F
  3.7819512915698956  2.0721660741389827  4.1225016236628260   F   F   F
  4.5935910598039378  3.7819512656405041  2.2767971962403557   F   F   F
  2.9582210156012878  3.7733203445984653 13.3789107415679194   T   T   T
  3.7897301507961232  0.3712613604464738 15.2276404762258668   T   T   T
  1.2107958706326507  4.6562178116880881 15.2029358194025956   T   T   T
  2.0832577380705275  1.2690283366050938 13.3745188332091818   T   T   T
  0.4420380833080164  1.2589318343439053  9.6661179238215187   T   T   T
  1.2569090101319080  2.9656679027745292 11.5162081548602000   T   T   T
  3.7841513199344217  2.0797885357865078 11.5152286379157207   T   T   T
  4.5986306953379357  3.7829565871440431  9.6628138522089682   T   T   T
  2.9703114739722949  8.8245529535661973  5.9682060410070203   F   F   F
  3.7797154068986942  5.4871643668176251  7.8165747047318908   T   T   T
  1.2623202089843384  9.6416976757781825  7.8178197631649144   T   T   T
  2.0722902106928354  6.3032521237258301  5.9682060416034357   F   F   F
  0.4490106314689157  6.3032521759498268  2.2767971752516325   F   F   F
  1.2606504245681873  8.0130373324953261  4.1225016206125158   F   F   F
  3.7819512915698956  7.1147677699980676  4.1225016236628260   F   F   F
  4.5935910598039378  8.8245529614995899  2.2767971962403557   F   F   F
  2.9591836999482375  8.8084722192247007 13.3745529446759157   T   T   T
  3.7595334596642274  5.4435395565644651 15.2315991433178315   T   T   T
  1.2337298012304121  9.6968772592691543 15.2130316843332860   T   T   T
  2.0618033779884715  6.3105708924024038 13.3638504944834917   T   T   T
  0.4460264681034083  6.3011067148059352  9.6614170664253578   T   T   T
  1.2568657754266623  8.0141407654016223 11.5070226033084193   T   T   T
  3.7814062984657708  7.1151103313972097 11.5146325963838887   T   T   T
  4.5973408207944075  8.8252069983035550  9.6661330679071948   T   T   T
  8.0129131698313802  3.7819512577071119  5.9682060410070203   F   F   F
  8.8227912898484249  0.4452713491390833  7.8172504769860049   T   T   T
  6.3045846954463558  4.5985709222912945  7.8172052473271219   T   T   T
  7.1148919065519207  1.2606504278667450  5.9682060416034357   F   F   F
  5.4916123273280029  1.2606504800907408  2.2767971752516325   F   F   F
  6.3032521204272722  2.9704356366362399  4.1225016206125158   F   F   F
  8.8245529874289801  2.0721660741389827  4.1225016236628260   F   F   F
  9.6361927556630231  3.7819512656405041  2.2767971962403557   F   F   F
  8.0049550905081528  3.7649086003907701 13.3743034202556981   T   T   T
  8.8270195499755353  0.3845559790665188 15.2068524760091037   T   T   T
  6.2461304020238391  4.6466994507776906 15.1835350889142653   T   T   T
  7.1064834397603862  1.2645350153716592 13.3637261928354381   T   T   T
  5.4819991030658484  1.2576867423484106  9.6673498528241417   T   T   T
  6.3029270725680036  2.9720510217507305 11.5071899289881987   T   T   T
  8.8261041286429300  2.0712873550408126 11.5147424670634582   T   T   T
  9.6423990265227406  3.7831162840260300  9.6676807578858668   T   T   T
  8.0129131698313802  8.8245529535661973  5.9682060410070203   F   F   F
  8.8229024576169905  5.4856965573653182  7.8180889694106863   T   T   T
  6.3046675623728134  9.6410171374844431  7.8188903672333119   T   T   T
  7.1148919065519207  6.3032521237258301  5.9682060416034357   F   F   F
  5.4916123273280029  6.3032521759498268  2.2767971752516325   F   F   F
  6.3032521204272722  8.0130373324953261  4.1225016206125158   F   F   F
  8.8245529874289801  7.1147677699980676  4.1225016236628260   F   F   F
  9.6361927556630231  8.8245529614995899  2.2767971962403557   F   F   F
  8.0131206469193543  8.8133217850250674 13.3562974539670822   T   T   T
  8.7987893940731858  5.4137055332108419 15.2484598094241743   T   T   T
  6.2796759014357342  9.6699988484650561 15.1964951173804383   T   T   T
  7.1257946234251657  6.3102759528335666 13.3688285332328238   T   T   T
  5.4821164697549261  6.3011318806236760  9.6646688401825749   T   T   T
  6.2988143741859339  8.0060015171356085 11.5113424099037260   T   T   T
  8.8254248280531460  7.1086558732329550 11.5030534376133815   T   T   T
  9.6405091715228277  8.8257522125192889  9.6627389398660650   T   T   T
 -0.0000000128010162 -0.0000000018596636  1.3539600011883675   F   F   F
  2.5213767880159694  0.0000733041379994  6.8901240389283664   T   T   T
  2.5213008556008076  2.5213008608331631  5.0453688808355697   F   F   F
 -0.0000000171250778  2.5213008613678882  3.1996343460082439   F   F   F
 10.0848735086227332  0.0005679901318449  8.7381541001067511   T   T   T
  2.5155821578356936 10.0800268354582414 14.2736053677550778   T   T   T
  2.5207652852009805  2.5222345703964217 12.4320483339819479   T   T   T
 10.0841505792027739  2.5200441034260845 10.5892900542980186   T   T   T
 10.0608071203082279 10.0477162183926652 16.2085602689491388   T   T   T
 -0.0000000128010162  5.0426016939994218  1.3539600011883675   F   F   F
  2.5205974450049307  5.0422464904913635  6.8899584511830225   T   T   T
  2.5213008556008076  7.5639025566922502  5.0453688808355697   F   F   F
 -0.0000000171250778  7.5639025572269736  3.1996343460082439   F   F   F
  0.0001843637496179  5.0405169362761395  8.7382682757208752   T   T   T
  2.4973489768921717  5.0423334066791892 14.2715482969376062   T   T   T
  2.5152582924138933  7.5616742475677858 12.4260329545578134   T   T   T
 10.0847145232173450  7.5625736049202468 10.5820466891301610   T   T   T
  0.0203489644711237  5.1846443987711854 16.2119115808040419   T   T   T
  5.0426016830580691 -0.0000000018596636  1.3539600011883675   F   F   F
  7.5634759338234465 10.0851651878845523  6.8905827069330812   T   T   T
  7.5639025514598943  2.5213008608331631  5.0453688808355697   F   F   F
  5.0426016787340080  2.5213008613678882  3.1996343460082439   F   F   F
  5.0414624228359433 10.0839968242267819  8.7394160269126910   T   T   T
  7.5545468522269799 10.0769132162970614 14.2581060487813804   T   T   T
  7.5602156246263563  2.5170174650804791 12.4268142929181824   T   T   T
  5.0415729749519524  2.5225347557011331 10.5863766809478133   T   T   T
  5.0435690395447264 10.0516874929695490 16.2110488370390620   T   T   T
  5.0426016830580691  5.0426016939994218  1.3539600011883675   F   F   F
  7.5638797291836077  5.0425364464120044  6.8901324706304328   T   T   T
  7.5639025514598943  7.5639025566922502  5.0453688808355697   F   F   F
  5.0426016787340080  7.5639025572269736  3.1996343460082439   F   F   F
  5.0416942294309903  5.0424094504959545  8.7371256098360988   T   T   T
  7.5454716874074208  5.0323161873099522 14.2698951069133120   T   T   T
  7.5652525377065034  7.5582701311630638 12.4209796354079600   T   T   T
  5.0387385610882767  7.5620008551997895 10.5873052742549589   T   T   T
  5.0284811540122778  5.0668574136812081 16.2056699118770169   T   T   T
