H  O  Si
 1.0000000000000000
    10.0852033917181707    0.0000000000000000    0.0000000000000000
     0.0000000000000000   10.0852033917181707    0.0000000000000000
     0.0000000000000000    0.0000000000000000   44.7656354930980669
 H   O   Si 
   8  72  32
Selective dynamics
Cartesian
  5.7567809614390795  5.5587599445481235  0.4999999999999999   F   F   F
  5.7567809614390795  0.5161582486890377  0.5000000000000002   F   F   F
  0.7141792655799917  5.5587599445481235  0.4999999999999999   F   F   F
  0.7141792655799916  0.5161582486890376  0.5000000000000002   F   F   F
  4.3284224428400249  4.5264435116647110  0.5000000326209009   F   F   F
  4.3284224428400249  9.5690452075237964  0.5000000326209009   F   F   F
  9.3710241386991111  4.5264435116647110  0.5000000326209004   F   F   F
  9.3710241386991111  9.5690452075237964  0.5000000326209009   F   F   F
  2.9703114739722949  3.7819512577071119  4.7364014463160578   F   F   F
  3.7848963703987164  0.4498923275121170  6.5724711018417388   T   T   T
  1.2579036931048175  4.5942255640858400  6.5737681282117046   T   T   T
  2.0722902106928354  1.2606504278667450  4.7364014469124678   F   F   F
  0.4490106314689157  1.2606504800907408  1.0449925805606706   F   F   F
  1.2606504245681873  2.9704356366362399  2.8906970259215541   F   F   F
  3.7819512915698956  2.0721660741389827  2.8906970289718643   F   F   F
  4.5935910598039378  3.7819512656405041  1.0449926015493929   F   F   F
  2.9729548568470339  3.7788917117866605 12.0952619219668698   T   T   T
  3.8051489985045568  0.4640494912958645 13.8796913148979915   T   T   T
  1.2324339003317974  4.5989458611521892 13.9037141890807696   T   T   T
  2.0531132977716950  1.2605904701822193 12.0824294034712363   T   T   T
  0.4514040339925781  1.2651701219536671  8.4152311050332305   T   T   T
  1.2646646999780664  2.9871792554758954 10.2479677959481066   T   T   T
  3.7765188213229126  2.0645454006039863 10.2527308089707265   T   T   T
  4.5944644459955795  3.7791121390646927  8.4172616848302440   T   T   T
  0.4089824300921516  1.0486283731128299 16.0827451520381004   T   T   T
  4.6392947003114795  3.9832648781652753 16.0625244310195576   T   T   T
  2.9703114739722949  8.8245529535661973  4.7364014463160578   F   F   F
  3.7844997564275178  5.4906138740576047  6.5747857182742422   T   T   T
  1.2581501921225764  9.6367954524100377  6.5736462527246120   T   T   T
  2.0722902106928354  6.3032521237258301  4.7364014469124678   F   F   F
  0.4490106314689157  6.3032521759498268  1.0449925805606706   F   F   F
  1.2606504245681873  8.0130373324953261  2.8906970259215541   F   F   F
  3.7819512915698956  7.1147677699980676  2.8906970289718643   F   F   F
  4.5935910598039378  8.8245529614995899  1.0449926015493929   F   F   F
  2.9639739528038769  8.8257072076308507 12.0994652195783967   T   T   T
  3.8009652052878913  5.4787130728255615 13.9081314939903660   T   T   T
  1.2343843504011851  9.6547657286421682 13.9109830995374821   T   T   T
  2.0700654353651649  6.3004813430086637 12.0927877394302286   T   T   T
  0.4486196948221582  6.3064145745624849  8.4155926249208211   T   T   T
  1.2653935195665404  8.0186113048791583 10.2527623384849509   T   T   T
  3.7825172753707070  7.1136126982118180 10.2598656535227022   T   T   T
  4.5906259182863574  8.8208836770616337  8.4131650031548944   T   T   T
  0.4161871196476482  6.1083019359069208 16.0597004105162426   T   T   T
  4.5992306483462659  9.0281004942129783 16.0284359832601275   T   T   T
  8.0129131698313802  3.7819512577071119  4.7364014463160578   F   F   F
  8.8272913332653431  0.4500240268914146  6.5729007354698723   T   T   T
  6.3009180941079022  4.5952344864574579  6.5745005493004491   T   T   T
  7.1148919065519207  1.2606504278667450  4.7364014469124678   F   F   F
  5.4916123273280029  1.2606504800907408  1.0449925805606706   F   F   F
  6.3032521204272722  2.9704356366362399  2.8906970259215541   F   F   F
  8.8245529874289801  2.0721660741389827  2.8906970289718643   F   F   F
  9.6361927556630231  3.7819512656405041  1.0449926015493929   F   F   F
  8.0176173679550793  3.7870081060906511 12.0932169883934435   T   T   T
  8.8455245778216440  0.4386840186897474 13.9229001657877021   T   T   T
  6.2808499910943931  4.6062867634077769 13.9043347707679370   T   T   T
  7.1198352754064498  1.2632662922719429 12.1037436820296485   T   T   T
  5.4947123026937623  1.2646617383959202  8.4136158997852881   T   T   T
  6.3056638153677156  2.9713805983293473 10.2596247636292848   T   T   T
  8.8237133869311659  2.0670862196929005 10.2574846370331763   T   T   T
  9.6289324327549277  3.7774048118804133  8.4109129997981888   T   T   T
  5.4406112127035717  1.0532811741407526 16.0510007496721663   T   T   T
  9.6749213972113122  3.9950335605665694 16.0689711072671706   T   T   T
  8.0129131698313802  8.8245529535661973  4.7364014463160578   F   F   F
  8.8275185504412406  5.4932993039309439  6.5716518259902239   T   T   T
  6.3005529094089612  9.6357255445937913  6.5728190631440446   T   T   T
  7.1148919065519207  6.3032521237258301  4.7364014469124678   F   F   F
  5.4916123273280029  6.3032521759498268  1.0449925805606706   F   F   F
  6.3032521204272722  8.0130373324953261  2.8906970259215541   F   F   F
  8.8245529874289801  7.1147677699980676  2.8906970289718643   F   F   F
  9.6361927556630231  8.8245529614995899  1.0449926015493929   F   F   F
  8.0207090349939882  8.8263969900480177 12.1011391356340710   T   T   T
  8.8492506923082104  5.4894459289560977 13.9050394517293352   T   T   T
  6.2780009777489623  9.6406485082143263 13.9016790813674334   T   T   T
  7.1105817184174711  6.3067417974462341 12.0934362193673319   T   T   T
  5.4942550264071093  6.3083953770219416  8.4176098082544097   T   T   T
  6.3087171005754596  8.0272650081893087 10.2553636878211165   T   T   T
  8.8220828894087138  7.1133443991202254 10.2574362855469428   T   T   T
  9.6332119327518964  8.8209994355437651  8.4131845915919232   T   T   T
  5.4493806498057866  6.1036257594285779 16.0602210887892340   T   T   T
  9.6767585097785478  9.0153265253924175 16.0692236488573101   T   T   T
  2.5213008375385781 -0.0000000222581547  5.6592386508787458   F   F   F
  2.5213008556008076  2.5213008608331631  3.8135642861446053   F   F   F
 -0.0000000171250778  2.5213008613678882  1.9678297513172844   F   F   F
 10.0851359851869429  0.0010413082639696  7.5040416777178081   T   T   T
  2.5113539223960486  0.0077388064866984 13.0106258074919392   T   T   T
  2.5177489577945966  2.5228433914586632 11.1769742742439373   T   T   T
 10.0845681162071390  2.5236816413132952  9.3440678815905702   T   T   T
 10.0848725752413930 10.0825777578172655 14.9016230772759819   T   T   T
  2.5213008375385781  5.0426016736009309  5.6592386508787458   F   F   F
  2.5213008556008076  7.5639025566922502  3.8135642861446053   F   F   F
 -0.0000000171250778  7.5639025572269736  1.9678297513172844   F   F   F
 10.0840022317379070  5.0428316066677414  7.5034396061567037   T   T   T
  2.5182141465904029  5.0394302126668995 13.0155541410121511   T   T   T
  2.5207295474015101  7.5644258905720179 11.1831302125000249   T   T   T
 10.0849207332822086  7.5649937820879494  9.3451830761924857   T   T   T
 10.0850750884912852  5.0474793215576437 14.8886649268024929   T   T   T
  7.5639025333976644 -0.0000000222581547  5.6592386508787458   F   F   F
  7.5639025514598943  2.5213008608331631  3.8135642861446053   F   F   F
  5.0426016787340080  2.5213008613678882  1.9678297513172844   F   F   F
  5.0426324021825417  0.0003407215046170  7.5032675307047674   T   T   T
  7.5683385384924131  0.0006456112654964 13.0231638485378909   T   T   T
  7.5663147560376425  2.5219755796650820 11.1852228502842301   T   T   T
  5.0430086912270484  2.5200498114042378  9.3464899358823779   T   T   T
  5.0319539824332509  0.0056853913683375 14.8652556322563107   T   T   T
  7.5639025333976644  5.0426016736009309  5.6592386508787458   F   F   F
  7.5639025514598943  7.5639025566922502  3.8135642861446053   F   F   F
  5.0426016787340080  7.5639025572269736  1.9678297513172844   F   F   F
  5.0433023020115808  5.0439850499700754  7.5061441427614062   T   T   T
  7.5656123203591532  5.0473685145279257 13.0149863705517888   T   T   T
  7.5649209660267163  7.5695141208736842 11.1840373375366653   T   T   T
  5.0446494452080834  7.5672527782735610  9.3472735883288447   T   T   T
  5.0424196401284176  5.0427532604011374 14.8859788365336101   T   T   T
