182
Lattice="12.705000000000002 0.0 0.0 0.0 12.705000000000002 0.0 0.0 0.0 31.356775175485915" Properties=species:S:1:pos:R:3:tags:I:1 pbc="T T T"
Ti       0.00000000       0.00000000       9.00000000        1
N        2.11750000       0.00000000       9.00000000        1
Ti       0.00000000       2.11750000      11.11750000        1
N        2.11750000       2.11750000      11.11750000        1
Ti       2.11750000       0.00000000      11.11750000        1
N        0.00000000       0.00000000      11.11750000        1
Ti       2.11750000       2.11750000       9.00000000        1
N        0.00000000       2.11750000       9.00000000        1
Ti       0.00000000       0.00000000      13.23500000        1
N        2.11750000       0.00000000      13.23500000        1
Ti       0.00000000       2.11750000      15.35250000        1
N        2.11750000       2.11750000      15.35250000        1
Ti       2.11750000       0.00000000      15.35250000        1
N        0.00000000       0.00000000      15.35250000        1
Ti       2.11750000       2.11750000      13.23500000        1
N        0.00000000       2.11750000      13.23500000        1
Ti       0.00000000       4.23500000       9.00000000        1
N        2.11750000       4.23500000       9.00000000        1
Ti       0.00000000       6.35250000      11.11750000        1
N        2.11750000       6.35250000      11.11750000        1
Ti       2.11750000       4.23500000      11.11750000        1
N        0.00000000       4.23500000      11.11750000        1
Ti       2.11750000       6.35250000       9.00000000        1
N        0.00000000       6.35250000       9.00000000        1
Ti       0.00000000       4.23500000      13.23500000        1
N        2.11750000       4.23500000      13.23500000        1
Ti       0.00000000       6.35250000      15.35250000        1
N        2.11750000       6.35250000      15.35250000        1
Ti       2.11750000       4.23500000      15.35250000        1
N        0.00000000       4.23500000      15.35250000        1
Ti       2.11750000       6.35250000      13.23500000        1
N        0.00000000       6.35250000      13.23500000        1
Ti       0.00000000       8.47000000       9.00000000        1
N        2.11750000       8.47000000       9.00000000        1
Ti       0.00000000      10.58750000      11.11750000        1
N        2.11750000      10.58750000      11.11750000        1
Ti       2.11750000       8.47000000      11.11750000        1
N        0.00000000       8.47000000      11.11750000        1
Ti       2.11750000      10.58750000       9.00000000        1
N        0.00000000      10.58750000       9.00000000        1
Ti       0.00000000       8.47000000      13.23500000        1
N        2.11750000       8.47000000      13.23500000        1
Ti       0.00000000      10.58750000      15.35250000        1
N        2.11750000      10.58750000      15.35250000        1
Ti       2.11750000       8.47000000      15.35250000        1
N        0.00000000       8.47000000      15.35250000        1
Ti       2.11750000      10.58750000      13.23500000        1
N        0.00000000      10.58750000      13.23500000        1
Ti       4.23500000       0.00000000       9.00000000        1
N        6.35250000       0.00000000       9.00000000        1
Ti       4.23500000       2.11750000      11.11750000        1
N        6.35250000       2.11750000      11.11750000        1
Ti       6.35250000       0.00000000      11.11750000        1
N        4.23500000       0.00000000      11.11750000        1
Ti       6.35250000       2.11750000       9.00000000        1
N        4.23500000       2.11750000       9.00000000        1
Ti       4.23500000       0.00000000      13.23500000        1
N        6.35250000       0.00000000      13.23500000        1
Ti       4.23500000       2.11750000      15.35250000        1
N        6.35250000       2.11750000      15.35250000        1
Ti       6.35250000       0.00000000      15.35250000        1
N        4.23500000       0.00000000      15.35250000        1
Ti       6.35250000       2.11750000      13.23500000        1
N        4.23500000       2.11750000      13.23500000        1
Ti       4.23500000       4.23500000       9.00000000        1
N        6.35250000       4.23500000       9.00000000        1
Ti       4.23500000       6.35250000      11.11750000        1
N        6.35250000       6.35250000      11.11750000        1
Ti       6.35250000       4.23500000      11.11750000        1
N        4.23500000       4.23500000      11.11750000        1
Ti       6.35250000       6.35250000       9.00000000        1
N        4.23500000       6.35250000       9.00000000        1
Ti       4.23500000       4.23500000      13.23500000        1
N        6.35250000       4.23500000      13.23500000        1
Ti       4.23500000       6.35250000      15.35250000        1
N        6.35250000       6.35250000      15.35250000        1
Ti       6.35250000       4.23500000      15.35250000        1
N        4.23500000       4.23500000      15.35250000        1
Ti       6.35250000       6.35250000      13.23500000        1
N        4.23500000       6.35250000      13.23500000        1
Ti       4.23500000       8.47000000       9.00000000        1
N        6.35250000       8.47000000       9.00000000        1
Ti       4.23500000      10.58750000      11.11750000        1
N        6.35250000      10.58750000      11.11750000        1
Ti       6.35250000       8.47000000      11.11750000        1
N        4.23500000       8.47000000      11.11750000        1
Ti       6.35250000      10.58750000       9.00000000        1
N        4.23500000      10.58750000       9.00000000        1
Ti       4.23500000       8.47000000      13.23500000        1
N        6.35250000       8.47000000      13.23500000        1
Ti       4.23500000      10.58750000      15.35250000        1
N        6.35250000      10.58750000      15.35250000        1
Ti       6.35250000       8.47000000      15.35250000        1
N        4.23500000       8.47000000      15.35250000        1
Ti       6.35250000      10.58750000      13.23500000        1
N        4.23500000      10.58750000      13.23500000        1
Ti       8.47000000       0.00000000       9.00000000        1
N       10.58750000       0.00000000       9.00000000        1
Ti       8.47000000       2.11750000      11.11750000        1
N       10.58750000       2.11750000      11.11750000        1
Ti      10.58750000       0.00000000      11.11750000        1
N        8.47000000       0.00000000      11.11750000        1
Ti      10.58750000       2.11750000       9.00000000        1
N        8.47000000       2.11750000       9.00000000        1
Ti       8.47000000       0.00000000      13.23500000        1
N       10.58750000       0.00000000      13.23500000        1
Ti       8.47000000       2.11750000      15.35250000        1
N       10.58750000       2.11750000      15.35250000        1
Ti      10.58750000       0.00000000      15.35250000        1
N        8.47000000       0.00000000      15.35250000        1
Ti      10.58750000       2.11750000      13.23500000        1
N        8.47000000       2.11750000      13.23500000        1
Ti       8.47000000       4.23500000       9.00000000        1
N       10.58750000       4.23500000       9.00000000        1
Ti       8.47000000       6.35250000      11.11750000        1
N       10.58750000       6.35250000      11.11750000        1
Ti      10.58750000       4.23500000      11.11750000        1
N        8.47000000       4.23500000      11.11750000        1
Ti      10.58750000       6.35250000       9.00000000        1
N        8.47000000       6.35250000       9.00000000        1
Ti       8.47000000       4.23500000      13.23500000        1
N       10.58750000       4.23500000      13.23500000        1
Ti       8.47000000       6.35250000      15.35250000        1
N       10.58750000       6.35250000      15.35250000        1
Ti      10.58750000       4.23500000      15.35250000        1
N        8.47000000       4.23500000      15.35250000        1
Ti      10.58750000       6.35250000      13.23500000        1
N        8.47000000       6.35250000      13.23500000        1
Ti       8.47000000       8.47000000       9.00000000        1
N       10.58750000       8.47000000       9.00000000        1
Ti       8.47000000      10.58750000      11.11750000        1
N       10.58750000      10.58750000      11.11750000        1
Ti      10.58750000       8.47000000      11.11750000        1
N        8.47000000       8.47000000      11.11750000        1
Ti      10.58750000      10.58750000       9.00000000        1
N        8.47000000      10.58750000       9.00000000        1
Ti       8.47000000       8.47000000      13.23500000        1
N       10.58750000       8.47000000      13.23500000        1
Ti       8.47000000      10.58750000      15.35250000        1
N       10.58750000      10.58750000      15.35250000        1
Ti      10.58750000       8.47000000      15.35250000        1
N        8.47000000       8.47000000      15.35250000        1
Ti      10.58750000      10.58750000      13.23500000        1
N        8.47000000      10.58750000      13.23500000        1
C        5.44292415       4.23500000      22.35677518        2
H        6.53292415       4.23500000      22.35677518        2
C        4.60826909       5.38380413      22.35677518        2
H        4.94509761       6.42045573      22.35677518        2
C        3.25776884       4.94500000      22.35677518        2
H        2.37594031       5.58568592      22.35677518        2
C        3.25776884       3.52500000      22.35677518        2
H        2.37594031       2.88431408      22.35677518        2
C        4.60826909       3.08619587      22.35677518        2
H        4.94509761       2.04954427      22.35677518        2
Zr       4.23500000       4.23500000      20.10677518        2
N        6.16136987       4.23500000      19.40563388        2
C        7.36097440       4.23500000      20.23782916        2
H        7.65993021       5.26247923      20.44522218        2
H        7.15273392       3.72126039      21.17634261        2
H        8.16712650       3.72126039      19.71410174        2
C        6.54539545       4.23500000      17.99704439        2
H        6.64109922       3.20752077      17.64600703        2
H        5.78260916       4.74873961      17.41195577        2
H        7.49958927       4.74873961      17.88005828        2
N        3.27181506       5.90328525      19.40563388        2
C        2.87590754       6.12706274      18.01826916        2
H        2.77724264       5.16846206      17.50890684        2
H        1.92075978       6.65159196      17.99254254        2
H        3.63372551       6.72843829      17.51611443        2
C        2.87590754       7.05097165      20.21660438        2
H        2.77724264       7.92992816      19.57957951        2
H        1.92075978       6.84345850      20.69902645        2
H        3.63372551       7.23757985      20.97751785        2
N        3.27181506       2.56671475      19.40563388        2
C        2.87590754       1.41902835      20.21660438        2
H        2.77724264       1.72595048      21.25783636        2
H        1.92075978       1.03360217      19.85989803        2
H        3.63372551       0.63948082      20.13838942        2
C        2.87590754       2.34293726      18.01826916        2
H        2.77724264       1.27280052      17.83613570        2
H        1.92075978       2.83277675      17.82892810        2
H        3.63372551       2.75593042      17.35250000        2
