38
Properties=species:S:1:pos:R:3 pbc="F F F"
C        1.20792415       0.00000000       0.00000000
H        2.29792415       0.00000000       0.00000000
C        0.37326909       1.14880413       0.00000000
H        0.71009761       2.18545573       0.00000000
C       -0.97723116       0.71000000       0.00000000
H       -1.85905969       1.35068592       0.00000000
C       -0.97723116      -0.71000000       0.00000000
H       -1.85905969      -1.35068592       0.00000000
C        0.37326909      -1.14880413       0.00000000
H        0.71009761      -2.18545573       0.00000000
Zr       0.00000000       0.00000000      -2.25000000
N        1.92636987       0.00000000      -2.95114129
C        3.12597440       0.00000000      -2.11894602
H        3.42493021       1.02747923      -1.91155300
H        2.91773392      -0.51373961      -1.18043256
H        3.93212650      -0.51373961      -2.64267343
C        2.31039545       0.00000000      -4.35973079
H        2.40609922      -1.02747923      -4.71076815
H        1.54760916       0.51373961      -4.94481940
H        3.26458927       0.51373961      -4.47671690
N       -0.96318494       1.66828525      -2.95114129
C       -1.35909246       1.89206274      -4.33850601
H       -1.45775736       0.93346206      -4.84786834
H       -2.31424022       2.41659196      -4.36423264
H       -0.60127449       2.49343829      -4.84066074
C       -1.35909246       2.81597165      -2.14017079
H       -1.45775736       3.69492816      -2.77719567
H       -2.31424022       2.60845850      -1.65774872
H       -0.60127449       3.00257985      -1.37925733
N       -0.96318494      -1.66828525      -2.95114129
C       -1.35909246      -2.81597165      -2.14017079
H       -1.45775736      -2.50904952      -1.09893881
H       -2.31424022      -3.20139783      -2.49687715
H       -0.60127449      -3.59551918      -2.21838575
C       -1.35909246      -1.89206274      -4.33850601
H       -1.45775736      -2.96219948      -4.52063948
H       -2.31424022      -1.40222325      -4.52784707
H       -0.60127449      -1.47906958      -5.00427518
