H  O  Si
 1.0000000000000000
    14.9328379451058169    0.0000000000000000    0.0000000000000000
     0.0000000000000024   14.9328379451058169    0.0000000000000000
     0.0000000000000000    0.0000000000000000   42.8569269688809484
 H   O   Si 
  18 144  63
Cartesian
  5.7694227204669586 10.4643352214101988  0.5000000000000003
 10.7470353688355633 10.4643352214101988  0.5000000000000002
  0.7918100720983523  5.4867225730415914  0.5000000000000002
 14.1410278730074719  9.4461153720642326  0.5000000000000004
  9.1634152246388627 14.4237280204328453  0.5000000000000017
  0.7918100720983514  0.5091099246729858  0.5000000000000006
  4.1858025762702580 14.4237280204328453  0.5000000000000014
  9.1634152246388592  4.4685027236956198  0.5000000000000007
 10.7470353688355615  0.5091099246729851  0.5000000000000002
 10.7470353688355615  5.4867225730415914  0.5000000000000000
 14.1410278730074719 14.4237280204328453  0.5000000000000011
  5.7694227204669577  5.4867225730415914  0.5000000000000002
  5.7694227204669568  0.5091099246729858  0.5000000000000003
  0.7918100720983530 10.4643352214101988  0.5000000000000006
  4.1858025762702553  4.4685027236956243  0.5000000000000006
  4.1858025762702562  9.4461153720642326  0.5000000000000008
  9.1634152246388627  9.4461153720642308  0.5000000000000008
 14.1410278730074701  4.4685027236956225  0.5000000000000001
  2.9865245388251087  3.7332094862764551  4.7160437108188296
  3.7332094862764551  0.4977182146408053  6.5527475635161112
  1.2444031620921525  4.4798944337278011  6.5527475635161112
  1.9910881095434985  1.2444031620921518  4.7160437108188296
  0.4977182146408052  1.2444031620921518  1.0426360054242736
  1.2444031620921523  2.9865245388251078  2.8793398581215532
  3.7332094862764547  1.9910881095434982  2.8793398581215532
  4.4798944337278019  3.7332094862764542  1.0426360054242736
  2.9865245388251114  3.7332094862764551 12.0628591216079446
  3.7332094862764551  0.4977182146408057 13.8995629743052227
  1.2444031620921530  4.4798944337278019 13.8995629743052227
  1.9910881095434989  1.2444031620921518 12.0628591216079446
  0.4977182146408056  1.2444031620921518  8.3894514162133866
  1.2444031620921523  2.9865245388251083 10.2261552689106665
  3.7332094862764555  1.9910881095434987 10.2261552689106665
  4.4798944337278028  3.7332094862764551  8.3894514162133866
  2.9865245388251096  8.7108221346450598  4.7160437108188296
  3.7332094862764560  5.4753308630094111  6.5527475635161112
  1.2444031620921534  9.4575070820964058  6.5527475635161112
  1.9910881095434994  6.2220158104607570  4.7160437108188296
  0.4977182146408060  6.2220158104607570  1.0426360054242736
  1.2444031620921532  7.9641371871937157  2.8793398581215532
  3.7332094862764555  6.9687007579121039  2.8793398581215532
  4.4798944337278028  8.7108221346450598  1.0426360054242736
  2.9865245388251123  8.7108221346450598 12.0628591216079446
  3.7332094862764560  5.4753308630094111 13.8995629743052227
  1.2444031620921538  9.4575070820964076 13.8995629743052227
  1.9910881095434998  6.2220158104607570 12.0628591216079446
  0.4977182146408063  6.2220158104607570  8.3894514162133866
  1.2444031620921532  7.9641371871937157 10.2261552689106665
  3.7332094862764564  6.9687007579121047 10.2261552689106665
  4.4798944337278037  8.7108221346450598  8.3894514162133866
  2.9865245388251105 13.6884347830136690  4.7160437108188296
  3.7332094862764569 10.4529435113780167  6.5527475635161112
  1.2444031620921541 14.4351197304650150  6.5527475635161112
  1.9910881095435000 11.1996284588293626  4.7160437108188296
  0.4977182146408067 11.1996284588293626  1.0426360054242736
  1.2444031620921538 12.9417498355623231  2.8793398581215532
  3.7332094862764569 11.9463134062807086  2.8793398581215532
  4.4798944337278037 13.6884347830136690  1.0426360054242736
  2.9865245388251132 13.6884347830136690 12.0628591216079446
  3.7332094862764569 10.4529435113780167 13.8995629743052227
  1.2444031620921545 14.4351197304650150 13.8995629743052227
  1.9910881095435005 11.1996284588293626 12.0628591216079446
  0.4977182146408072 11.1996284588293626  8.3894514162133866
  1.2444031620921538 12.9417498355623231 10.2261552689106665
  3.7332094862764569 11.9463134062807210 10.2261552689106665
  4.4798944337278082 13.6884347830136690  8.3894514162133866
  7.9641371871937139  3.7332094862764551  4.7160437108188296
  8.7108221346450598  0.4977182146408053  6.5527475635161112
  6.2220158104607579  4.4798944337278011  6.5527475635161112
  6.9687007579121039  1.2444031620921518  4.7160437108188296
  5.4753308630094111  1.2444031620921518  1.0426360054242736
  6.2220158104607579  2.9865245388251078  2.8793398581215532
  8.7108221346450598  1.9910881095434982  2.8793398581215532
  9.4575070820964076  3.7332094862764542  1.0426360054242736
  7.9641371871937165  3.7332094862764551 12.0628591216079446
  8.7108221346450598  0.4977182146408057 13.8995629743052227
  6.2220158104607588  4.4798944337278019 13.8995629743052227
  6.9687007579121047  1.2444031620921518 12.0628591216079446
  5.4753308630094111  1.2444031620921518  8.3894514162133866
  6.2220158104607579  2.9865245388251083 10.2261552689106665
  8.7108221346450598  1.9910881095434987 10.2261552689106665
  9.4575070820964093  3.7332094862764551  8.3894514162133866
  7.9641371871937174  8.7108221346450598  4.7160437108188296
  8.7108221346450616  5.4753308630094111  6.5527475635161112
  6.2220158104607588  9.4575070820964058  6.5527475635161112
  6.9687007579121047  6.2220158104607570  4.7160437108188296
  5.4753308630094120  6.2220158104607570  1.0426360054242736
  6.2220158104607588  7.9641371871937157  2.8793398581215532
  8.7108221346450616  6.9687007579121039  2.8793398581215532
  9.4575070820964093  8.7108221346450598  1.0426360054242736
  7.9641371871937174  8.7108221346450598 12.0628591216079446
  8.7108221346450616  5.4753308630094111 13.8995629743052227
  6.2220158104607597  9.4575070820964076 13.8995629743052227
  6.9687007579121056  6.2220158104607570 12.0628591216079446
  5.4753308630094120  6.2220158104607570  8.3894514162133866
  6.2220158104607588  7.9641371871937157 10.2261552689106665
  8.7108221346450616  6.9687007579121047 10.2261552689106665
  9.4575070820964093  8.7108221346450598  8.3894514162133866
  7.9641371871937174 13.6884347830136690  4.7160437108188296
  8.7108221346450616 10.4529435113780167  6.5527475635161112
  6.2220158104607597 14.4351197304650150  6.5527475635161112
  6.9687007579121056 11.1996284588293626  4.7160437108188296
  5.4753308630094129 11.1996284588293626  1.0426360054242736
  6.2220158104607597 12.9417498355623231  2.8793398581215532
  8.7108221346450616 11.9463134062807086  2.8793398581215532
  9.4575070820964093 13.6884347830136690  1.0426360054242736
  7.9641371871937174 13.6884347830136690 12.0628591216079446
  8.7108221346450634 10.4529435113780167 13.8995629743052227
  6.2220158104607606 14.4351197304650150 13.8995629743052227
  6.9687007579121065 11.1996284588293626 12.0628591216079446
  5.4753308630094129 11.1996284588293626  8.3894514162133866
  6.2220158104607597 12.9417498355623231 10.2261552689106665
  8.7108221346450634 11.9463134062807210 10.2261552689106665
  9.4575070820964093 13.6884347830136690  8.3894514162133866
 12.9417498355623231  3.7332094862764551  4.7160437108188296
 13.6884347830136690  0.4977182146408053  6.5527475635161112
 11.1996284588293644  4.4798944337278011  6.5527475635161112
 11.9463134062807210  1.2444031620921518  4.7160437108188296
 10.4529435113780167  1.2444031620921518  1.0426360054242736
 11.1996284588293626  2.9865245388251078  2.8793398581215532
 13.6884347830136690  1.9910881095434982  2.8793398581215532
 14.4351197304650150  3.7332094862764542  1.0426360054242736
 12.9417498355623231  3.7332094862764551 12.0628591216079446
 13.6884347830136690  0.4977182146408057 13.8995629743052227
 11.1996284588293644  4.4798944337278019 13.8995629743052227
 11.9463134062807210  1.2444031620921518 12.0628591216079446
 10.4529435113780167  1.2444031620921518  8.3894514162133866
 11.1996284588293626  2.9865245388251083 10.2261552689106665
 13.6884347830136690  1.9910881095434987 10.2261552689106665
 14.4351197304650150  3.7332094862764551  8.3894514162133866
 12.9417498355623248  8.7108221346450598  4.7160437108188296
 13.6884347830136690  5.4753308630094111  6.5527475635161112
 11.1996284588293644  9.4575070820964058  6.5527475635161112
 11.9463134062807104  6.2220158104607570  4.7160437108188296
 10.4529435113780167  6.2220158104607570  1.0426360054242736
 11.1996284588293626  7.9641371871937157  2.8793398581215532
 13.6884347830136708  6.9687007579121039  2.8793398581215532
 14.4351197304650167  8.7108221346450598  1.0426360054242736
 12.9417498355623248  8.7108221346450598 12.0628591216079446
 13.6884347830136690  5.4753308630094111 13.8995629743052227
 11.1996284588293644  9.4575070820964076 13.8995629743052227
 11.9463134062807104  6.2220158104607570 12.0628591216079446
 10.4529435113780167  6.2220158104607570  8.3894514162133866
 11.1996284588293626  7.9641371871937157 10.2261552689106665
 13.6884347830136708  6.9687007579121047 10.2261552689106665
 14.4351197304650167  8.7108221346450598  8.3894514162133866
 12.9417498355623248 13.6884347830136690  4.7160437108188296
 13.6884347830136708 10.4529435113780167  6.5527475635161112
 11.1996284588293662 14.4351197304650150  6.5527475635161112
 11.9463134062807228 11.1996284588293626  4.7160437108188296
 10.4529435113780185 11.1996284588293626  1.0426360054242736
 11.1996284588293644 12.9417498355623231  2.8793398581215532
 13.6884347830136708 11.9463134062807086  2.8793398581215532
 14.4351197304650167 13.6884347830136690  1.0426360054242736
 12.9417498355623248 13.6884347830136690 12.0628591216079446
 13.6884347830136708 10.4529435113780167 13.8995629743052227
 11.1996284588293662 14.4351197304650150 13.8995629743052227
 11.9463134062807228 11.1996284588293626 12.0628591216079446
 10.4529435113780185 11.1996284588293626  8.3894514162133866
 11.1996284588293662 12.9417498355623231 10.2261552689106665
 13.6884347830136708 11.9463134062807210 10.2261552689106665
 14.4351197304650167 13.6884347830136690  8.3894514162133866
  2.4888063241843037  0.0000000000000003  5.6343956371674677
  2.4888063241843041  2.4888063241843037  3.7976917844701927
  0.0000000000000005  2.4888063241843037  1.9609879317729135
  0.0000000000000004  0.0000000000000004  7.4710994898647485
  2.4888063241843037  0.0000000000000008 12.9812110479565792
  2.4888063241843041  2.4888063241843037 11.1445071952593047
  0.0000000000000010  2.4888063241843037  9.3078033425620283
  2.4888063241843046  4.9776126483686074  5.6343956371674677
  2.4888063241843050  7.4664189725529075  3.7976917844701927
  0.0000000000000013  7.4664189725529075  1.9609879317729135
  0.0000000000000012  4.9776126483686074  7.4710994898647485
  2.4888063241843046  4.9776126483686074 12.9812110479565792
  2.4888063241843050  7.4664189725529075 11.1445071952593047
  0.0000000000000018  7.4664189725529075  9.3078033425620283
  2.4888063241843055  9.9552252967372148  5.6343956371674677
  2.4888063241843059 12.4440316209215140  3.7976917844701927
  0.0000000000000021 12.4440316209215140  1.9609879317729135
  0.0000000000000020  9.9552252967372148  7.4710994898647485
  2.4888063241843055  9.9552252967372148 12.9812110479565792
  2.4888063241843059 12.4440316209215140 11.1445071952593047
  0.0000000000000026 12.4440316209215140  9.3078033425620283
  7.4664189725529075  0.0000000000000003  5.6343956371674677
  7.4664189725529075  2.4888063241843037  3.7976917844701927
  4.9776126483686074  2.4888063241843037  1.9609879317729135
  4.9776126483686074  0.0000000000000004  7.4710994898647485
  7.4664189725529102  0.0000000000000008 12.9812110479565792
  7.4664189725529102  2.4888063241843037 11.1445071952593047
  4.9776126483686074  2.4888063241843037  9.3078033425620283
  7.4664189725529111  4.9776126483686074  5.6343956371674677
  7.4664189725529084  7.4664189725529075  3.7976917844701927
  4.9776126483686083  7.4664189725529075  1.9609879317729135
  4.9776126483686083  4.9776126483686074  7.4710994898647485
  7.4664189725529111  4.9776126483686074 12.9812110479565792
  7.4664189725529111  7.4664189725529075 11.1445071952593047
  4.9776126483686083  7.4664189725529075  9.3078033425620283
  7.4664189725529093  9.9552252967372148  5.6343956371674677
  7.4664189725529093 12.4440316209215140  3.7976917844701927
  4.9776126483686092 12.4440316209215140  1.9609879317729135
  4.9776126483686092  9.9552252967372148  7.4710994898647485
  7.4664189725529120  9.9552252967372148 12.9812110479565792
  7.4664189725529120 12.4440316209215140 11.1445071952593047
  4.9776126483686092 12.4440316209215140  9.3078033425620283
 12.4440316209215140  0.0000000000000003  5.6343956371674677
 12.4440316209215140  2.4888063241843037  3.7976917844701927
  9.9552252967372148  2.4888063241843037  1.9609879317729135
  9.9552252967372148  0.0000000000000004  7.4710994898647485
 12.4440316209215140  0.0000000000000008 12.9812110479565792
 12.4440316209215140  2.4888063241843037 11.1445071952593047
  9.9552252967372148  2.4888063241843037  9.3078033425620283
 12.4440316209215140  4.9776126483686074  5.6343956371674677
 12.4440316209215140  7.4664189725529075  3.7976917844701927
  9.9552252967372166  7.4664189725529075  1.9609879317729135
  9.9552252967372148  4.9776126483686074  7.4710994898647485
 12.4440316209215140  4.9776126483686074 12.9812110479565792
 12.4440316209215140  7.4664189725529075 11.1445071952593047
  9.9552252967372166  7.4664189725529075  9.3078033425620283
 12.4440316209215158  9.9552252967372148  5.6343956371674677
 12.4440316209215158 12.4440316209215140  3.7976917844701927
  9.9552252967372166 12.4440316209215140  1.9609879317729135
  9.9552252967372166  9.9552252967372148  7.4710994898647485
 12.4440316209215176  9.9552252967372148 12.9812110479565792
 12.4440316209215176 12.4440316209215140 11.1445071952593047
  9.9552252967372166 12.4440316209215140  9.3078033425620283
Cartesian
  0.0000000000000000  0.0000000000000000  0.0000000000000000
  0.0000000000000000  0.0000000000000000  0.0000000000000000
  0.0000000000000000  0.0000000000000000  0.0000000000000000
  0.0000000000000000  0.0000000000000000  0.0000000000000000
  0.0000000000000000  0.0000000000000000  0.0000000000000000
  0.0000000000000000  0.0000000000000000  0.0000000000000000
  0.0000000000000000  0.0000000000000000  0.0000000000000000
  0.0000000000000000  0.0000000000000000  0.0000000000000000
  0.0000000000000000  0.0000000000000000  0.0000000000000000
  0.0000000000000000  0.0000000000000000  0.0000000000000000
  0.0000000000000000  0.0000000000000000  0.0000000000000000
  0.0000000000000000  0.0000000000000000  0.0000000000000000
  0.0000000000000000  0.0000000000000000  0.0000000000000000
  0.0000000000000000  0.0000000000000000  0.0000000000000000
  0.0000000000000000  0.0000000000000000  0.0000000000000000
  0.0000000000000000  0.0000000000000000  0.0000000000000000
  0.0000000000000000  0.0000000000000000  0.0000000000000000
  0.0000000000000000  0.0000000000000000  0.0000000000000000
  0.0000000000000000  0.0000000000000000  0.0000000000000000
  0.0000000000000000  0.0000000000000000  0.0000000000000000
  0.0000000000000000  0.0000000000000000  0.0000000000000000
  0.0000000000000000  0.0000000000000000  0.0000000000000000
  0.0000000000000000  0.0000000000000000  0.0000000000000000
  0.0000000000000000  0.0000000000000000  0.0000000000000000
  0.0000000000000000  0.0000000000000000  0.0000000000000000
  0.0000000000000000  0.0000000000000000  0.0000000000000000
  0.0000000000000000  0.0000000000000000  0.0000000000000000
  0.0000000000000000  0.0000000000000000  0.0000000000000000
  0.0000000000000000  0.0000000000000000  0.0000000000000000
  0.0000000000000000  0.0000000000000000  0.0000000000000000
  0.0000000000000000  0.0000000000000000  0.0000000000000000
  0.0000000000000000  0.0000000000000000  0.0000000000000000
  0.0000000000000000  0.0000000000000000  0.0000000000000000
  0.0000000000000000  0.0000000000000000  0.0000000000000000
  0.0000000000000000  0.0000000000000000  0.0000000000000000
  0.0000000000000000  0.0000000000000000  0.0000000000000000
  0.0000000000000000  0.0000000000000000  0.0000000000000000
  0.0000000000000000  0.0000000000000000  0.0000000000000000
  0.0000000000000000  0.0000000000000000  0.0000000000000000
  0.0000000000000000  0.0000000000000000  0.0000000000000000
  0.0000000000000000  0.0000000000000000  0.0000000000000000
  0.0000000000000000  0.0000000000000000  0.0000000000000000
  0.0000000000000000  0.0000000000000000  0.0000000000000000
  0.0000000000000000  0.0000000000000000  0.0000000000000000
  0.0000000000000000  0.0000000000000000  0.0000000000000000
  0.0000000000000000  0.0000000000000000  0.0000000000000000
  0.0000000000000000  0.0000000000000000  0.0000000000000000
  0.0000000000000000  0.0000000000000000  0.0000000000000000
  0.0000000000000000  0.0000000000000000  0.0000000000000000
  0.0000000000000000  0.0000000000000000  0.0000000000000000
  0.0000000000000000  0.0000000000000000  0.0000000000000000
  0.0000000000000000  0.0000000000000000  0.0000000000000000
  0.0000000000000000  0.0000000000000000  0.0000000000000000
  0.0000000000000000  0.0000000000000000  0.0000000000000000
  0.0000000000000000  0.0000000000000000  0.0000000000000000
  0.0000000000000000  0.0000000000000000  0.0000000000000000
  0.0000000000000000  0.0000000000000000  0.0000000000000000
  0.0000000000000000  0.0000000000000000  0.0000000000000000
  0.0000000000000000  0.0000000000000000  0.0000000000000000
  0.0000000000000000  0.0000000000000000  0.0000000000000000
  0.0000000000000000  0.0000000000000000  0.0000000000000000
  0.0000000000000000  0.0000000000000000  0.0000000000000000
  0.0000000000000000  0.0000000000000000  0.0000000000000000
  0.0000000000000000  0.0000000000000000  0.0000000000000000
  0.0000000000000000  0.0000000000000000  0.0000000000000000
  0.0000000000000000  0.0000000000000000  0.0000000000000000
  0.0000000000000000  0.0000000000000000  0.0000000000000000
  0.0000000000000000  0.0000000000000000  0.0000000000000000
  0.0000000000000000  0.0000000000000000  0.0000000000000000
  0.0000000000000000  0.0000000000000000  0.0000000000000000
  0.0000000000000000  0.0000000000000000  0.0000000000000000
  0.0000000000000000  0.0000000000000000  0.0000000000000000
  0.0000000000000000  0.0000000000000000  0.0000000000000000
  0.0000000000000000  0.0000000000000000  0.0000000000000000
  0.0000000000000000  0.0000000000000000  0.0000000000000000
  0.0000000000000000  0.0000000000000000  0.0000000000000000
  0.0000000000000000  0.0000000000000000  0.0000000000000000
  0.0000000000000000  0.0000000000000000  0.0000000000000000
  0.0000000000000000  0.0000000000000000  0.0000000000000000
  0.0000000000000000  0.0000000000000000  0.0000000000000000
  0.0000000000000000  0.0000000000000000  0.0000000000000000
  0.0000000000000000  0.0000000000000000  0.0000000000000000
  0.0000000000000000  0.0000000000000000  0.0000000000000000
  0.0000000000000000  0.0000000000000000  0.0000000000000000
  0.0000000000000000  0.0000000000000000  0.0000000000000000
  0.0000000000000000  0.0000000000000000  0.0000000000000000
  0.0000000000000000  0.0000000000000000  0.0000000000000000
  0.0000000000000000  0.0000000000000000  0.0000000000000000
  0.0000000000000000  0.0000000000000000  0.0000000000000000
  0.0000000000000000  0.0000000000000000  0.0000000000000000
  0.0000000000000000  0.0000000000000000  0.0000000000000000
  0.0000000000000000  0.0000000000000000  0.0000000000000000
  0.0000000000000000  0.0000000000000000  0.0000000000000000
  0.0000000000000000  0.0000000000000000  0.0000000000000000
  0.0000000000000000  0.0000000000000000  0.0000000000000000
  0.0000000000000000  0.0000000000000000  0.0000000000000000
  0.0000000000000000  0.0000000000000000  0.0000000000000000
  0.0000000000000000  0.0000000000000000  0.0000000000000000
  0.0000000000000000  0.0000000000000000  0.0000000000000000
  0.0000000000000000  0.0000000000000000  0.0000000000000000
  0.0000000000000000  0.0000000000000000  0.0000000000000000
  0.0000000000000000  0.0000000000000000  0.0000000000000000
  0.0000000000000000  0.0000000000000000  0.0000000000000000
  0.0000000000000000  0.0000000000000000  0.0000000000000000
  0.0000000000000000  0.0000000000000000  0.0000000000000000
  0.0000000000000000  0.0000000000000000  0.0000000000000000
  0.0000000000000000  0.0000000000000000  0.0000000000000000
  0.0000000000000000  0.0000000000000000  0.0000000000000000
  0.0000000000000000  0.0000000000000000  0.0000000000000000
  0.0000000000000000  0.0000000000000000  0.0000000000000000
  0.0000000000000000  0.0000000000000000  0.0000000000000000
  0.0000000000000000  0.0000000000000000  0.0000000000000000
  0.0000000000000000  0.0000000000000000  0.0000000000000000
  0.0000000000000000  0.0000000000000000  0.0000000000000000
  0.0000000000000000  0.0000000000000000  0.0000000000000000
  0.0000000000000000  0.0000000000000000  0.0000000000000000
  0.0000000000000000  0.0000000000000000  0.0000000000000000
  0.0000000000000000  0.0000000000000000  0.0000000000000000
  0.0000000000000000  0.0000000000000000  0.0000000000000000
  0.0000000000000000  0.0000000000000000  0.0000000000000000
  0.0000000000000000  0.0000000000000000  0.0000000000000000
  0.0000000000000000  0.0000000000000000  0.0000000000000000
  0.0000000000000000  0.0000000000000000  0.0000000000000000
  0.0000000000000000  0.0000000000000000  0.0000000000000000
  0.0000000000000000  0.0000000000000000  0.0000000000000000
  0.0000000000000000  0.0000000000000000  0.0000000000000000
  0.0000000000000000  0.0000000000000000  0.0000000000000000
  0.0000000000000000  0.0000000000000000  0.0000000000000000
  0.0000000000000000  0.0000000000000000  0.0000000000000000
  0.0000000000000000  0.0000000000000000  0.0000000000000000
  0.0000000000000000  0.0000000000000000  0.0000000000000000
  0.0000000000000000  0.0000000000000000  0.0000000000000000
  0.0000000000000000  0.0000000000000000  0.0000000000000000
  0.0000000000000000  0.0000000000000000  0.0000000000000000
  0.0000000000000000  0.0000000000000000  0.0000000000000000
  0.0000000000000000  0.0000000000000000  0.0000000000000000
  0.0000000000000000  0.0000000000000000  0.0000000000000000
  0.0000000000000000  0.0000000000000000  0.0000000000000000
  0.0000000000000000  0.0000000000000000  0.0000000000000000
  0.0000000000000000  0.0000000000000000  0.0000000000000000
  0.0000000000000000  0.0000000000000000  0.0000000000000000
  0.0000000000000000  0.0000000000000000  0.0000000000000000
  0.0000000000000000  0.0000000000000000  0.0000000000000000
  0.0000000000000000  0.0000000000000000  0.0000000000000000
  0.0000000000000000  0.0000000000000000  0.0000000000000000
  0.0000000000000000  0.0000000000000000  0.0000000000000000
  0.0000000000000000  0.0000000000000000  0.0000000000000000
  0.0000000000000000  0.0000000000000000  0.0000000000000000
  0.0000000000000000  0.0000000000000000  0.0000000000000000
  0.0000000000000000  0.0000000000000000  0.0000000000000000
  0.0000000000000000  0.0000000000000000  0.0000000000000000
  0.0000000000000000  0.0000000000000000  0.0000000000000000
  0.0000000000000000  0.0000000000000000  0.0000000000000000
  0.0000000000000000  0.0000000000000000  0.0000000000000000
  0.0000000000000000  0.0000000000000000  0.0000000000000000
  0.0000000000000000  0.0000000000000000  0.0000000000000000
  0.0000000000000000  0.0000000000000000  0.0000000000000000
  0.0000000000000000  0.0000000000000000  0.0000000000000000
  0.0000000000000000  0.0000000000000000  0.0000000000000000
  0.0000000000000000  0.0000000000000000  0.0000000000000000
  0.0000000000000000  0.0000000000000000  0.0000000000000000
  0.0000000000000000  0.0000000000000000  0.0000000000000000
  0.0000000000000000  0.0000000000000000  0.0000000000000000
  0.0000000000000000  0.0000000000000000  0.0000000000000000
  0.0000000000000000  0.0000000000000000  0.0000000000000000
  0.0000000000000000  0.0000000000000000  0.0000000000000000
  0.0000000000000000  0.0000000000000000  0.0000000000000000
  0.0000000000000000  0.0000000000000000  0.0000000000000000
  0.0000000000000000  0.0000000000000000  0.0000000000000000
  0.0000000000000000  0.0000000000000000  0.0000000000000000
  0.0000000000000000  0.0000000000000000  0.0000000000000000
  0.0000000000000000  0.0000000000000000  0.0000000000000000
  0.0000000000000000  0.0000000000000000  0.0000000000000000
  0.0000000000000000  0.0000000000000000  0.0000000000000000
  0.0000000000000000  0.0000000000000000  0.0000000000000000
  0.0000000000000000  0.0000000000000000  0.0000000000000000
  0.0000000000000000  0.0000000000000000  0.0000000000000000
  0.0000000000000000  0.0000000000000000  0.0000000000000000
  0.0000000000000000  0.0000000000000000  0.0000000000000000
  0.0000000000000000  0.0000000000000000  0.0000000000000000
  0.0000000000000000  0.0000000000000000  0.0000000000000000
  0.0000000000000000  0.0000000000000000  0.0000000000000000
  0.0000000000000000  0.0000000000000000  0.0000000000000000
  0.0000000000000000  0.0000000000000000  0.0000000000000000
  0.0000000000000000  0.0000000000000000  0.0000000000000000
  0.0000000000000000  0.0000000000000000  0.0000000000000000
  0.0000000000000000  0.0000000000000000  0.0000000000000000
  0.0000000000000000  0.0000000000000000  0.0000000000000000
  0.0000000000000000  0.0000000000000000  0.0000000000000000
  0.0000000000000000  0.0000000000000000  0.0000000000000000
  0.0000000000000000  0.0000000000000000  0.0000000000000000
  0.0000000000000000  0.0000000000000000  0.0000000000000000
  0.0000000000000000  0.0000000000000000  0.0000000000000000
  0.0000000000000000  0.0000000000000000  0.0000000000000000
  0.0000000000000000  0.0000000000000000  0.0000000000000000
  0.0000000000000000  0.0000000000000000  0.0000000000000000
  0.0000000000000000  0.0000000000000000  0.0000000000000000
  0.0000000000000000  0.0000000000000000  0.0000000000000000
  0.0000000000000000  0.0000000000000000  0.0000000000000000
  0.0000000000000000  0.0000000000000000  0.0000000000000000
  0.0000000000000000  0.0000000000000000  0.0000000000000000
  0.0000000000000000  0.0000000000000000  0.0000000000000000
  0.0000000000000000  0.0000000000000000  0.0000000000000000
  0.0000000000000000  0.0000000000000000  0.0000000000000000
  0.0000000000000000  0.0000000000000000  0.0000000000000000
  0.0000000000000000  0.0000000000000000  0.0000000000000000
  0.0000000000000000  0.0000000000000000  0.0000000000000000
  0.0000000000000000  0.0000000000000000  0.0000000000000000
  0.0000000000000000  0.0000000000000000  0.0000000000000000
  0.0000000000000000  0.0000000000000000  0.0000000000000000
  0.0000000000000000  0.0000000000000000  0.0000000000000000
  0.0000000000000000  0.0000000000000000  0.0000000000000000
  0.0000000000000000  0.0000000000000000  0.0000000000000000
  0.0000000000000000  0.0000000000000000  0.0000000000000000
  0.0000000000000000  0.0000000000000000  0.0000000000000000
  0.0000000000000000  0.0000000000000000  0.0000000000000000
  0.0000000000000000  0.0000000000000000  0.0000000000000000
  0.0000000000000000  0.0000000000000000  0.0000000000000000
  0.0000000000000000  0.0000000000000000  0.0000000000000000
  0.0000000000000000  0.0000000000000000  0.0000000000000000
  0.0000000000000000  0.0000000000000000  0.0000000000000000
  0.0000000000000000  0.0000000000000000  0.0000000000000000
  0.0000000000000000  0.0000000000000000  0.0000000000000000
  0.0000000000000000  0.0000000000000000  0.0000000000000000
  0.0000000000000000  0.0000000000000000  0.0000000000000000
