Si4 O8                                  
   1.00000000000000     
     4.9776126483686056    0.0000000000000000    0.0000000000000003
     0.0000000000000008    4.9776126483686056    0.0000000000000003
     0.0000000000000000    0.0000000000000000    7.3468154107891124
   Si   O 
     4     8
Direct
  0.0000000000000000  0.0000000000000000  0.0000000000000000
  0.5000000000000000  0.0000000000000000  0.7500000000000000
  0.5000000000000000  0.5000000000000000  0.5000000000000000
  0.0000000000000000  0.5000000000000000  0.2500000000000000
  0.5999913512362056  0.7500000000000000  0.6250000000000000
  0.7500000000000000  0.0999913512362056  0.8750000000000000
  0.2500000000000000  0.9000086487637944  0.8750000000000000
  0.4000086487637944  0.2500000000000000  0.6250000000000000
  0.0999913512362056  0.2500000000000000  0.1250000000000000
  0.2500000000000000  0.5999913512362056  0.3750000000000000
  0.7500000000000000  0.4000086487637944  0.3750000000000000
  0.9000086487637944  0.7500000000000000  0.1250000000000000
 
  0.00000000E+00  0.00000000E+00  0.00000000E+00
  0.00000000E+00  0.00000000E+00  0.00000000E+00
  0.00000000E+00  0.00000000E+00  0.00000000E+00
  0.00000000E+00  0.00000000E+00  0.00000000E+00
  0.00000000E+00  0.00000000E+00  0.00000000E+00
  0.00000000E+00  0.00000000E+00  0.00000000E+00
  0.00000000E+00  0.00000000E+00  0.00000000E+00
  0.00000000E+00  0.00000000E+00  0.00000000E+00
  0.00000000E+00  0.00000000E+00  0.00000000E+00
  0.00000000E+00  0.00000000E+00  0.00000000E+00
  0.00000000E+00  0.00000000E+00  0.00000000E+00
  0.00000000E+00  0.00000000E+00  0.00000000E+00
