H  Si H  Si
 1.0000000000000000
    10.9261013811555987   10.9261013811555987    0.0000000000000000
   -10.9261013811555987   10.9261013811555987    0.0000000000000000
     0.0000000000000000    0.0000000000000000   45.0233894016878224
 H   Si  H   Si 
  16  96  16  96
Cartesian
 -7.6827720807198538 11.4379053428385866  0.5000000038189714
 -2.2197213901420541 16.9009560334163886  0.5000000038189711
  3.2433293004357453  5.9748546522607899  0.5000000038189714
 -2.2197213901420545 11.4379053428385866  0.5000000038189711
 -4.9512467289126096 14.1694306909883370  0.5000000000000000
  0.5118039616651920  3.2433293098327374  0.5000000000000000
  5.9748546522429908  8.7063800004105367  0.5000000000000006
  0.5118039616651923  8.7063800004105367  0.5000000000000002
 -5.9748546432128045 13.1458227753450156  0.5000000130961536
  4.9512467379427951  7.6827720847672181  0.5000000130961536
 -0.5118039526350041 13.1458227753450174  0.5000000130961539
 -0.5118039526350037 18.6088734659228159  0.5000000130961539
 -3.2433292964061775 15.8773481284953863  0.5000000164938015
  2.2197213941716214  4.9512467473397868  0.5000000164938015
  7.6827720847494207 10.4142974379175861  0.5000000164938012
  2.2197213941716218 10.4142974379175879  0.5000000164938015
 -6.8288133637032278 12.2918640561901018  1.3539600084575627
  2.7315253465761122  2.7315253424909418  2.7197226800783043
  1.3657626746033795  4.0972880236543761  1.3539600082469008
  5.4630506871376410  5.4630506845095672  2.7197226807172523
  4.0972880194690520  4.0972880226319672  4.0854853514111955
  2.7315253455996964  5.4630506864071329  5.4512480284254314
  1.3657626748846270  1.3657626751066521  4.0854853520035714
 -5.4630506940753838 13.6576267246692158  5.4512480287791254
 -6.8288133738035750 12.2918640313055203  6.8166191969127237
  2.7312058879657921  2.7318646827299014  8.1845862996860337
  1.3657626596796932  4.0972880184384923  6.8167277360986418
 -5.4627057053290846 16.3887928303573247  8.1870846340428312
  4.0962142221252558  4.0961980734987220  9.5557442827029924
  2.7357762009953701  5.4671726909111245 10.9223061839773319
  1.3668695360295393  1.3668379041773240  9.5557908764123258
 -5.4722398599603785 13.6485673942388424 10.9217987652717703
 -6.8288133786637051 12.2918640273990665 12.3033613258650014
  2.7075664778037889  2.7544722919651590 13.6796570120958183
  1.3657626253271180  4.0972880222784704 12.2714376926337199
 -5.4382316608694241 16.3633848066207079 13.6718741038076264
  4.0969782887069757  4.1004196999033722 15.0484218661941380
 -5.9616594679967410 13.1621719955958110 16.2661262980709509
 -9.5607682416774402 12.2873906360369993 15.0481163148019128
  3.2283766044513809  5.9636367928114584 16.2602037849366248
  4.0972880174523727  6.8288133656123033  1.3539600084575627
  2.7315253465761131  8.1945760330687420  2.7197226800783043
  1.3657626746033793  9.5603387142321754  1.3539600082469008
 -5.4630506940179586 10.9261013750873666  2.7197226807172523
  4.0972880194690529  9.5603387132097684  4.0854853514111955
 -8.1945760355559027 10.9261013769849313  5.4512480284254314
  1.3657626748846268  6.8288133656844519  4.0854853520035714
  5.4630506870802158  8.1945760340914173  5.4512480287791254
  4.0972880339373967  6.8288133318809114  6.8182704442583377
  2.7311803143828559  8.1949353168522219  8.1870846243344211
  1.3657626685203228  9.5603387112169962  6.8182211081617412
  5.4633701425431793 10.9257620590689370  8.1845862983379583
  4.0983617947629618  9.5614286720540314  9.5557443143050147
 -8.1853868556525313 10.9351607062731411 10.9217987385890805
  1.3646557652527405  6.8277381014708123  9.5557908800580922
  5.4587998457288895  8.1904540312184810 10.9223062174708492
  4.0972880552778941  6.8288133497349177 12.2961770098147589
  2.7067063618329312  8.2203432358346866 13.6718740011397433
  1.3657627145445452  9.5603387775977122 12.2614872548216916
  5.4870095873203892 10.9031543878968922 13.6796570806260291
  4.0975977334261513  9.5572068760448499 15.0484218352523342
  4.9661994432704146  7.6939897713316272 16.2602036790477058
  1.3661921089089166  6.8332868246244951 15.0481163246801017
 -7.6959675594525914 11.4215557612784391 16.2661263102360145
 -1.3657626731254275 12.2918640561901036  1.3539600084575627
 -2.7315253440016880 13.6576267236465405  2.7197226800783043
 -4.0972880159744207 15.0233894048099756  1.3539600082469008
 -0.0000000034401594  5.4630506845095672  2.7197226807172523
 -1.3657626711087487 15.0233894037875668  4.0854853514111955
 -2.7315253449781038 16.3891520675627334  5.4512480284254314
 -4.0972880156931728 12.2918640562622503  4.0854853520035714
 -0.0000000034975844  2.7315253435136175  5.4512480287791254
 -1.3657626832335517 12.2918640440961635  6.8182704692929814
 -2.7318703600240335 13.6579860193611609  8.1870846422661696
 -4.0972880040742696 15.0233893950956947  6.8182210977153161
  0.0003195018536694  5.4627113373226326  8.1845863306217748
 -1.3646888956966441 15.0244793620307302  9.5557443070094443
 -2.7223361548698297 16.3982114141016062 10.9217987980481315
 -4.0983949010276364 12.2907887725187575  9.5557908630032795
 -0.0042508976487509 13.6535047663714391 10.9223062005900626
 -1.3657626772346625 12.2918640795762855 12.2961769854067633
 -2.7563443718859628 13.6833939651439938 13.6718741026483102
 -4.0972880304129005 15.0233893592755265 12.2614872801502717
  0.0239588465650837  5.4401037465451756 13.6796570816214178
 -1.3654529811247849 15.0202577650251889 15.0484219801483476
 -0.4968512665047060 13.1570407009847195 16.2602037984694974
 -4.0968584685092768 12.2963373564017413 15.0481163126247797
 -2.2329165426891859 16.8846068334136028 16.2661262257449799
 -1.3657626731254280 17.7549147467679020  1.3539600084575627
  8.1945760371539116  8.1945760330687420  2.7197226800783043
  6.8288133651811789  9.5603387142321754  1.3539600082469008
 -0.0000000034401592 -0.0000000060682318  2.7197226807172523
  9.5603387100468513  9.5603387132097684  4.0854853514111955
 -2.7315253449781052 10.9261013769849331  5.4512480284254314
  6.8288133654624268  6.8288133656844519  4.0854853520035714
 -0.0000000034975848  8.1945760340914173  5.4512480287791254
 -1.3657626813185524 17.7549147522848685  6.8166191656047328
  8.1942565240485905  8.1949153720687598  8.1845863230976743
  6.8288133717356674  9.5603387063820371  6.8167277402363231
  0.0003450415377928 10.9257420992397289  8.1870846600740563
  9.5592649135666896  9.5592487493014104  9.5557443355648832
 -2.7272744726316649 10.9302233242677591 10.9223062274275975
  6.8299202445868801  6.8298886177467413  9.5557908631599791
 -0.0091891933821169 19.1116181039133082 10.9217987215812720
 -1.3657627388585456 17.7549147451031963 12.3033613371368524
  8.1706171425582124  8.2175229770215434 13.6796571388648545
  6.8288134086787151  9.5603387153049457 12.2714377395917484
  0.0248190079715424 10.9003341840582220 13.6718740221984874
  9.5600290697845978  9.5634704565136452 15.0484219782893085
 -0.4986085472018869 18.6252229820465445 16.2661263014115747
 -4.0977174744297837 17.7504413284990008 15.0481163942046035
 -2.2346740333750064 11.4266875388503752 16.2602037182060037
  3.2433293004357449 11.4379053428385866  0.5000000038189714
 -2.2197213901420527  5.9748546522607908  0.5000000038189711
  3.2433293004357453 16.9009560334163886  0.5000000038189714
  8.7063799910135451 11.4379053428385866  0.5000000038189711
  5.9748546522429917 14.1694306909883370  0.5000000000000000
  0.5118039616651918 14.1694306909883352  0.5000000000000000
 -4.9512467289126070  8.7063800004105403  0.5000000000000006
  0.5118039616651916 19.6324813815661408  0.5000000000000002
  4.9512467379427951 13.1458227753450192  0.5000000130961536
 -5.9748546432128045  7.6827720847672172  0.5000000130961536
 -0.5118039526350028  2.2197213941894205  0.5000000130961539
 -0.5118039526350028  7.6827720847672190  0.5000000130961539
 -3.2433292964061771  4.9512467473397885  0.5000000164938015
  2.2197213941716205 15.8773481284953846  0.5000000164938015
 -3.2433292964061757 10.4142974379175914  0.5000000164938012
 -8.7063799869839773 10.4142974379175897  0.5000000164938015
  4.0972880174523727 12.2918640561901018  1.3539600084575627
  2.7315253465761131 13.6576267236465405  2.7197226800783043
  1.3657626746033800 15.0233894048099774  1.3539600082469008
 -5.4630506940179568  5.4630506845095654  2.7197226807172523
  4.0972880194690511 15.0233894037875650  4.0854853514111955
  2.7315253455996955 16.3891520675627298  5.4512480284254314
  1.3657626748846272 12.2918640562622521  4.0854853520035714
  5.4630506870802167 13.6576267246692176  5.4512480287791254
  4.0972880073520255 12.2918640313055203  6.8166191969127237
  2.7312058879657930 13.6579660638854996  8.1845862996860337
  1.3657626596796926 15.0233893995940910  6.8167277360986418
 -5.4627057053290820  5.4626914492017278  8.1870846340428312
  4.0962142221252567 15.0222994546543216  9.5557442827029924
  2.7357762009953692 16.3932740720667205 10.9223061839773319
  1.3668695360295398 12.2929392853329222  9.5557908764123258
  5.4538615211952211 13.6485673942388441 10.9217987652717703
  4.0972880024918927 12.2918640273990647 12.3033613258650014
  2.7075664778037889 13.6805736731207563 13.6796570120958183
  1.3657626253271187 15.0233894034340700 12.2714376926337199
  5.4878697202861755 16.3633848066207115 13.6718741038076264
  4.0969782887069757 15.0265210810589718 15.0484218661941380
  4.9644419131588586 13.1621719955958127 16.2661262980709509
  1.3653331394781583 12.2873906360369993 15.0481163148019128
  3.2283766044513804 16.8897381739670571 16.2602037849366248
 -6.8288133637032278  6.8288133656123033  1.3539600084575627
 -8.1945760345794856  8.1945760330687403  2.7197226800783043
 -9.5603387065522192  9.5603387142321772  1.3539600082469008
  5.4630506871376419 10.9261013750873666  2.7197226807172523
 -6.8288133616865450  9.5603387132097684  4.0854853514111955
  2.7315253455996968 10.9261013769849331  5.4512480284254314
  1.3657626748846259 17.7549147468400506  4.0854853520035714
 -5.4630506940753829  8.1945760340914173  5.4512480287791254
 -6.8288133472182020  6.8288133318809114  6.8182704442583377
 -8.1949210667727410  8.1949353168522219  8.1870846243344211
 -9.5603387126352768  9.5603387112169944  6.8182211081617412
 -5.4627312386124185 10.9257620590689370  8.1845862983379583
 -6.8277395863926360  9.5614286720540331  9.5557443143050147
  2.7407145255030692 10.9351607062731411 10.9217987385890805
  1.3646557652527396 17.7538394826264145  9.5557908800580922
 -5.4673015354267065  8.1904540312184828 10.9223062174708492
 -6.8288133258777046  6.8288133497349168 12.2961770098147589
 -8.2193950193226684  8.2203432358346831 13.6718740011397433
 -9.5603386666110524  9.5603387775977140 12.2614872548216916
 -5.4390917938352086 10.9031543878968922 13.6796570806260291
 -6.8285036477294465  9.5572068760448499 15.0484218352523342
 -5.9599019378851832  7.6939897713316290 16.2602036790477058
  1.3661921089089171 17.7593882057800982 15.0481163246801017
  3.2301338217030073 11.4215557612784373 16.2661263102360145
 -1.3657626731254275  1.3657626750345029  1.3539600084575627
 -2.7315253440016867  2.7315253424909427  2.7197226800783043
 -4.0972880159744189  4.0972880236543769  1.3539600082469008
 -0.0000000034401585 16.3891520656651686  2.7197226807172523
 -1.3657626711087454  4.0972880226319681  4.0854853514111955
 -2.7315253449781034  5.4630506864071320  5.4512480284254314
  6.8288133654624259 12.2918640562622485  4.0854853520035714
 -0.0000000034975837 13.6576267246692176  5.4512480287791254
 -1.3657626832335505  1.3657626629405659  6.8182704692929814
 -2.7318703600240331  2.7318846382055617  8.1870846422661696
 -4.0972880040742670  4.0972880139401004  6.8182210977153161
  0.0003195018536691 16.3888127184782277  8.1845863306217748
 -1.3646888956966436  4.0983779808751297  9.5557443070094443
 -2.7223361548698271  5.4721100329460102 10.9217987980481315
  6.8277064801279614 12.2907887725187557  9.5557908630032795
 -0.0042508976487493  2.7274033852158421 10.9223062005900626
 -1.3657626772346616  1.3657626984206848 12.2961769854067633
 -2.7563443718859606  2.7572925839883968 13.6718741026483102
 -4.0972880304128996  4.0972879781199287 12.2614872801502717
  0.0239588465650848 16.3662051277007770 13.6796570816214178
 -1.3654529811247831  4.0941563838695920 15.0484219801483476
 -0.4968512665047040  2.2309393198291225 16.2602037984694974
  6.8292429126463219 12.2963373564017395 15.0481163126247797
 -2.2329165426891837  5.9585054522580068 16.2661262257449799
 -1.3657626731254262  6.8288133656123051  1.3539600084575627
 -2.7315253440016862  8.1945760330687420  2.7197226800783043
 -4.0972880159744189  9.5603387142321754  1.3539600082469008
 -0.0000000034401601 10.9261013750873648  2.7197226807172523
 -1.3657626711087452  9.5603387132097684  4.0854853514111955
  8.1945760361774944 10.9261013769849313  5.4512480284254314
 -4.0972880156931701  6.8288133656844536  4.0854853520035714
 -0.0000000034975845 19.1206774152470196  5.4512480287791254
 -1.3657626813185499  6.8288133711292724  6.8166191656047328
 -2.7318448571070086  8.1949153720687615  8.1845863230976743
 -4.0972880094199295  9.5603387063820424  6.8167277402363231
 -10.9257563396178075 10.9257420992397307  8.1870846600740563
 -1.3668364675889078  9.5592487493014140  9.5557443355648832
  8.1988269085239320 10.9302233242677591 10.9223062274275975
 -4.0961811365687169  6.8298886177467422  9.5557908631599791
 -0.0091891933821142  8.1855167227577130 10.9217987215812720
 -1.3657627388585438  6.8288133639475976 12.3033613371368524
 -2.7554842385973859  8.2175229770215452 13.6796571388648545
 -4.0972879724768818  9.5603387153049457 12.2714377395917484
  0.0248190079715421 21.8264355652138242 13.6718740221984874
 -1.3660723113710000  9.5634704565136488 15.0484219782893085
 -0.4986085472018854  7.6991216008909467 16.2661263014115747
 -4.0977174744297837  6.8243399473434030 15.0481163942046035
  8.6914273477805928 11.4266875388503770 16.2602037182060037
