H  O  Si H  O  Si
 1.0000000000000000
    10.0852033917181707   10.0852033917181707    0.0000000000000000
   -10.0852033917181707   10.0852033917181707    0.0000000000000000
     0.0000000000000000    0.0000000000000000   44.7656354721093379
 H   O   Si  H   O   Si 
   8  64  36   8  64  36
Cartesian
 -1.1376716761398642 15.5330138848143733  0.5000000023767337
 -1.1376716761398642 10.4904121889552879  0.5000000023767335
 -6.1802733719989504 10.4904121889552879  0.5000000023767355
  3.9049300197192207  5.4478104930962026  0.5000000023767355
  6.1802733360108579  9.6799945666105032  0.5000000000000000
 -3.9049300557073132 14.7225962624695885  0.5000000000000000
  1.1376716401517732  9.6799945666105032  0.5000000000000016
  1.1376716401517737  4.6373928707514169  0.5000000000000018
  2.9703114739722949  3.7819512577071119  5.9682060410070203
 -6.3046548262939135 10.5292600030648522  7.8173396025572970
  1.2617480081062318  4.5955616371044430  7.8167028507335852
 -8.0129131810253362 11.3458538195849155  5.9682060416034357
  0.4490106314689157  1.2606504800907408  2.2767971752516325
  1.2606504245681875  2.9704356366362403  4.1225016206125158
 -6.3032521001482760 12.1573694658571547  4.1225016236628260
 -5.4916123319142338 13.8671546573586753  2.2767971962403557
  2.9582210156012883  3.7733203445984662 13.3789107415679194
 -6.2954732409220480 10.4564647521646439 15.2276404762258668
  1.2107958706326509  4.6562178116880890 15.2029358194025956
 -8.0019456536476437 11.3542317283232652 13.3745188332091836
  0.4420380833080164  1.2589318343439053  9.6661179238215187
  1.2569090101319078  2.9656679027745287 11.5162081548602000
 -6.3010520717837490 12.1649919275046781 11.5152286379157207
 -5.4865726963802359 13.8681599788622147  9.6628138522089682
  2.9703114739722944  8.8245529535661973  5.9682060410070203
  3.7797154068986938  5.4871643668176251  7.8165747047318908
  1.2623202089843382  9.6416976757781825  7.8178197631649144
  2.0722902106928358  6.3032521237258310  5.9682060416034357
  0.4490106314689156  6.3032521759498268  2.2767971752516325
  1.2606504245681875  8.0130373324953279  4.1225016206125158
  3.7819512915698952  7.1147677699980667  4.1225016236628260
  4.5935910598039378  8.8245529614995899  2.2767971962403557
  2.9591836999482370  8.8084722192247007 13.3745529446759157
  3.7595334596642274  5.4435395565644651 15.2315991433178315
  1.2337298012304121  9.6968772592691543 15.2130316843332860
  2.0618033779884719  6.3105708924024047 13.3638504944834935
  0.4460264681034086  6.3011067148059361  9.6614170664253578
  1.2568657754266619  8.0141407654016206 11.5070226033084193
  3.7814062984657713  7.1151103313972106 11.5146325963838905
  4.5973408207944075  8.8252069983035550  9.6661330679071948
 -2.0722902218867914 13.8671546494252826  5.9682060410070203
 -1.2624121018697465 10.5304747408572545  7.8172504769860049
 -3.7806186962718149 14.6837743140094670  7.8172052473271227
 -2.9703114851662500 11.3458538195849155  5.9682060416034357
 -4.5935910643901678 11.3458538718089113  2.2767971752516325
 -3.7819512712908994 13.0556390283544115  4.1225016206125158
 -1.2606504042891913 12.1573694658571529  4.1225016236628260
 -0.4490106360551483 13.8671546573586753  2.2767971962403557
 -2.0802483012100179 13.8501119921089408 13.3743034202556981
 -1.2581838417426352 10.4697593707846899 15.2068524760091037
 -3.8390729896943316 14.7319028424958613 15.1835350889142653
 -2.9787199519577849 11.3497384070898306 13.3637261928354381
 -4.6032042886523232 11.3428901340665824  9.6673498528241417
 -3.7822763191501685 13.0572544134689021 11.5071899289882005
 -1.2590992630752404 12.1564907467589833 11.5147424670634582
 -0.4428043651954314 13.8683196757442015  9.6676807578858668
  8.0129131698313802  8.8245529535661991  5.9682060410070203
 -1.2623009341011815 15.5708999490834898  7.8180889694106863
  6.3046675623728134  9.6410171374844431  7.8188903672333128
 -2.9703114851662504 16.3884555154440008  5.9682060416034357
  5.4916123273280029  6.3032521759498259  2.2767971752516325
  6.3032521204272722  8.0130373324953261  4.1225016206125158
 -1.2606504042891913 17.1999711617162383  4.1225016236628260
 -0.4490106360551483 18.9097563532177624  2.2767971962403557
  8.0131206469193543  8.8133217850250674 13.3562974539670822
 -1.2864139976449853 15.4989089249290117 15.2484598094241761
  6.2796759014357351  9.6699988484650579 15.1964951173804383
 -2.9594087682930059 16.3954793445517382 13.3688285332328238
  5.4821164697549269  6.3011318806236760  9.6646688401825749
  6.2988143741859339  8.0060015171356085 11.5113424099037278
 -1.2597785636650252 17.1938592649511257 11.5030534376133815
 -0.4446942201953436 18.9109556042374614  9.6627389398660650
 -0.0000000128010162 -0.0000000018596636  1.3539600011883675
 -7.5638266037022017 10.0852766958561695  6.8901240389283664
  2.5213008556008072  2.5213008608331631  5.0453688808355697
 -0.0000000171250776  2.5213008613678887  3.1996343460082439
 -0.0003298830954379 10.0857713818500159  8.7381541001067511
  2.5155821578356941 10.0800268354582432 14.2736053677550778
  2.5207652852009805  2.5222345703964213 12.4320483339819479
 -0.0010528125153978 12.6052474951442566 10.5892900542980186
 -0.0243962714099443 20.1329196101108359 16.2085602689491388
 -0.0000000128010167  5.0426016939994209  1.3539600011883675
  2.5205974450049307  5.0422464904913635  6.8899584511830225
  2.5213008556008081  7.5639025566922502  5.0453688808355697
 -0.0000000171250776  7.5639025572269736  3.1996343460082439
  0.0001843637496179  5.0405169362761395  8.7382682757208752
  2.4973489768921717  5.0423334066791892 14.2715482969376062
  2.5152582924138933  7.5616742475677867 12.4260329545578134
 -0.0004888685008256 17.6477769966384166 10.5820466891301610
  0.0203489644711237  5.1846443987711854 16.2119115808040419
 -5.0426017086601025 10.0852033898585081  1.3539600011883675
  7.5634759338234474 10.0851651878845523  6.8905827069330812
 -2.5213008402582764 12.6065042525513338  5.0453688808355697
 -5.0426017129841636 12.6065042530860598  3.1996343460082439
  5.0414624228359433 10.0839968242267819  8.7394160269126910
  7.5545468522269799 10.0769132162970614 14.2581060487813804
 -2.5249877670918148 12.6022208567986507 12.4268142929181824
 -5.0436304167662183 12.6077381474193047 10.5863766809478133
  5.0435690395447272 10.0516874929695508 16.2110488370390620
  5.0426016830580691  5.0426016939994218  1.3539600011883675
 -2.5213236625345634 15.1277398381301751  6.8901324706304328
  7.5639025514598952  7.5639025566922502  5.0453688808355697
  5.0426016787340080  7.5639025572269736  3.1996343460082439
  5.0416942294309903  5.0424094504959536  8.7371256098360988
 -2.5397317043107503 15.1175195790281229 14.2698951069133120
 -2.5199508540116669 17.6434735228812372 12.4209796354079600
  5.0387385610882767  7.5620008551997895 10.5873052742549589
  5.0284811540122778  5.0668574136812090 16.2056699118770169
 -1.1376716761398615  5.4478104930962044  0.5000000023767337
  8.9475317155783074 10.4904121889552862  0.5000000023767335
  3.9049300197192207 10.4904121889552897  0.5000000023767355
  3.9049300197192198 15.5330138848143733  0.5000000023767355
 -3.9049300557073128  9.6799945666105014  0.5000000000000000
 -3.9049300557073114  4.6373928707514196  0.5000000000000000
 -8.9475317515663964  9.6799945666105014  0.5000000000000016
  1.1376716401517732 14.7225962624695885  0.5000000000000018
  2.9703114739722944 13.8671546494252809  5.9682060410070203
  3.7805485654242590 10.5292600030648540  7.8173396025572970
  1.2617480081062320 14.6807650288226146  7.8167028507335852
  2.0722902106928354 11.3458538195849155  5.9682060416034357
  0.4490106314689160 11.3458538718089130  2.2767971752516325
  1.2606504245681873 13.0556390283544115  4.1225016206125158
  3.7819512915698965 12.1573694658571547  4.1225016236628260
  4.5935910598039378 13.8671546573586753  2.2767971962403557
  2.9582210156012869 13.8585237363166360 13.3789107415679194
  3.7897301507961236 10.4564647521646457 15.2276404762258668
  1.2107958706326509 14.7414212034062579 15.2029358194025956
  2.0832577380705271 11.3542317283232652 13.3745188332091836
  0.4420380833080166 11.3441352260620754  9.6661179238215187
  1.2569090101319078 13.0508712944926994 11.5162081548602000
  3.7841513199344217 12.1649919275046781 11.5152286379157207
  4.5986306953379366 13.8681599788622147  9.6628138522089682
 -7.1148919177458749  8.8245529535661973  5.9682060410070203
  3.7797154068986951 15.5723677585357976  7.8165747047318908
 -8.8228831827338308  9.6416976757781843  7.8178197631649144
  2.0722902106928358 16.3884555154440044  5.9682060416034357
  0.4490106314689151 16.3884555676679966  2.2767971752516325
  1.2606504245681880 18.0982407242135004  4.1225016206125158
 -6.3032521001482742  7.1147677699980685  4.1225016236628260
 -5.4916123319142320  8.8245529614995899  2.2767971962403557
 -7.1260196917699323  8.8084722192247025 13.3745529446759157
  3.7595334596642269 15.5287429482826358 15.2315991433178315
 -8.8514735904877586  9.6968772592691561 15.2130316843332860
  2.0618033779884715 16.3957742841205736 13.3638504944834935
  0.4460264681034081 16.3863101065241068  9.6614170664253578
  1.2568657754266623 18.0993441571197984 11.5070226033084193
 -6.3037970932524008  7.1151103313972062 11.5146325963838905
 -5.4878625709237632  8.8252069983035533  9.6661330679071948
 -2.0722902218867900  3.7819512577071128  5.9682060410070203
  8.8227912898484249 10.5304747408572545  7.8172504769860049
 -3.7806186962718122  4.5985709222912980  7.8172052473271227
  7.1148919065519198 11.3458538195849155  5.9682060416034357
  5.4916123273280038 11.3458538718089130  2.2767971752516325
  6.3032521204272713 13.0556390283544079  4.1225016206125158
 -1.2606504042891897  2.0721660741389831  4.1225016236628260
 -0.4490106360551471  3.7819512656405054  2.2767971962403557
 -2.0802483012100161  3.7649086003907719 13.3743034202556981
  8.8270195499755353 10.4697593707846899 15.2068524760091037
 -3.8390729896943299  4.6466994507776924 15.1835350889142653
  7.1064834397603853 11.3497384070898306 13.3637261928354381
  5.4819991030658475 11.3428901340665806  9.6673498528241417
  6.3029270725680036 13.0572544134689004 11.5071899289882005
 -1.2590992630752382  2.0712873550408153 11.5147424670634582
 -0.4428043651954274  3.7831162840260322  9.6676807578858668
 -2.0722902218867896  8.8245529535661973  5.9682060410070203
 -1.2623009341011806  5.4856965573653191  7.8180889694106863
 -3.7805358293453568  9.6410171374844449  7.8188903672333128
 -2.9703114851662487  6.3032521237258310  5.9682060416034357
 -4.5935910643901670  6.3032521759498268  2.2767971752516325
 -3.7819512712908976  8.0130373324953279  4.1225016206125158
 -1.2606504042891897  7.1147677699980685  4.1225016236628260
 -0.4490106360551483  8.8245529614995863  2.2767971962403557
 -2.0720827447988146  8.8133217850250709 13.3562974539670822
 -1.2864139976449844  5.4137055332108419 15.2484598094241761
 -3.8055274902824370  9.6699988484650579 15.1964951173804383
 -2.9594087682930041  6.3102759528335692 13.3688285332328238
 -4.6030869219632455  6.3011318806236742  9.6646688401825749
 -3.7863890175322363  8.0060015171356085 11.5113424099037278
 -1.2597785636650225  7.1086558732329577 11.5030534376133815
 -0.4446942201953407  8.8257522125192907  9.6627389398660650
 -0.0000000128010174 10.0852033898585045  1.3539600011883675
  2.5213767880159703 10.0852766958561713  6.8901240389283664
  2.5213008556008072 12.6065042525513320  5.0453688808355697
 -0.0000000171250780 12.6065042530860580  3.1996343460082439
 -0.0003298830954353  0.0005679901318474  8.7381541001067511
 -7.5696212338824758 10.0800268354582414 14.2736053677550778
  2.5207652852009801 12.6074379621145933 12.4320483339819479
 -0.0010528125153946  2.5200441034260863 10.5892900542980186
 -0.0243962714099402 10.0477162183926687 16.2085602689491388
 -0.0000000128010150 15.1278050857175952  1.3539600011883675
  2.5205974450049315 15.1274498822095360  6.8899584511830225
 -7.5639025361173635  7.5639025566922520  5.0453688808355697
 -0.0000000171250782 17.6491059489451452  3.1996343460082439
  0.0001843637496176 15.1257203279943102  8.7382682757208752
  2.4973489768921713 15.1275367983973599 14.2715482969376062
  2.5152582924138929 17.6468776392859574 12.4260329545578134
 -0.0004888685008233  7.5625736049202485 10.5820466891301610
  0.0203489644711241 15.2698477904893579 16.2119115808040419
  5.0426016830580691 10.0852033898585063  1.3539600011883675
 -2.5217274578947237 10.0851651878845523  6.8905827069330812
 -2.5213008402582759  2.5213008608331644  5.0453688808355697
  5.0426016787340080 12.6065042530860580  3.1996343460082439
 -5.0437409688822257 10.0839968242267854  8.7394160269126910
 -2.5306565394911891 10.0769132162970632 14.2581060487813804
  7.5602156246263554 12.6022208567986489 12.4268142929181824
  5.0415729749519533 12.6077381474193064 10.5863766809478133
 -5.0416343521734444 10.0516874929695490 16.2110488370390620
 -5.0426017086601016  5.0426016939994236  1.3539600011883675
 -2.5213236625345612  5.0425364464120070  6.8901324706304328
 -2.5213008402582737  7.5639025566922564  5.0453688808355697
 -5.0426017129841627  7.5639025572269727  3.1996343460082439
  5.0416942294309903 15.1276128422141269  8.7371256098360988
 -2.5397317043107499  5.0323161873099522 14.2698951069133120
 -2.5199508540116664  7.5582701311630647 12.4209796354079600
 -5.0464648306298940  7.5620008551997886 10.5873052742549589
 -5.0567222377058920  5.0668574136812099 16.2056699118770169
