H  O  Si H  O  Si
 1.0000000000000000
    10.0852033917181707   10.0852033917181707    0.0000000000000000
   -10.0852033917181707   10.0852033917181707    0.0000000000000000
     0.0000000000000000    0.0000000000000000   44.7656354930980669
 H   O   Si  H   O   Si 
   8  72  32   8  72  32
Cartesian
 -4.3284224302790912 15.6439633362662960  0.4999999999999999
 -4.3284224302790912 10.6013616404072071  0.5000000000000002
  0.7141792655799915  5.5587599445481235  0.4999999999999999
 -9.3710241261381793 10.6013616404072089  0.5000000000000002
  4.3284224428400249  4.5264435116647102  0.5000000326209009
  4.3284224428400249  9.5690452075237964  0.5000000326209009
 -0.7141792530190604 14.6116469033828817  0.5000000326209004
  9.3710241386991111  9.5690452075237982  0.5000000326209009
  2.9703114739722949  3.7819512577071119  4.7364014463160578
 -6.3003070213194547 10.5350957192302879  6.5724711018417388
  1.2579036931048173  4.5942255640858392  6.5737681282117046
 -8.0129131810253362 11.3458538195849155  4.7364014469124678
  0.4490106314689157  1.2606504800907408  1.0449925805606706
  1.2606504245681875  2.9704356366362403  2.8906970259215541
 -6.3032521001482760 12.1573694658571547  2.8906970289718643
 -5.4916123319142338 13.8671546573586753  1.0449926015493929
  2.9729548568470339  3.7788917117866605 12.0952619219668698
 -6.2800543932136144 10.5492528830140362 13.8796913148979897
  1.2324339003317974  4.5989458611521892 13.9037141890807696
 -8.0320900939464757 11.3457938619003897 12.0824294034712363
  0.4514040339925782  1.2651701219536673  8.4152311050332305
  1.2646646999780662  2.9871792554758949 10.2479677959481066
 -6.3086845703952577 12.1497487923221570 10.2527308089707265
 -5.4907389457225912 13.8643155307828643  8.4172616848302440
  0.4089824300921516  1.0486283731128299 16.0827451520381004
 -5.4459086914066921 14.0684682698834465 16.0625244310195576
  2.9703114739722944  8.8245529535661973  4.7364014463160578
  3.7844997564275178  5.4906138740576047  6.5747857182742422
  1.2581501921225762  9.6367954524100377  6.5736462527246120
  2.0722902106928358  6.3032521237258310  4.7364014469124678
  0.4490106314689156  6.3032521759498268  1.0449925805606706
  1.2606504245681875  8.0130373324953279  2.8906970259215541
  3.7819512915698952  7.1147677699980667  2.8906970289718643
  4.5935910598039378  8.8245529614995899  1.0449926015493929
  2.9639739528038773  8.8257072076308507 12.0994652195783949
  3.8009652052878913  5.4787130728255615 13.9081314939903660
  1.2343843504011851  9.6547657286421664 13.9109830995374821
  2.0700654353651649  6.3004813430086637 12.0927877394302286
  0.4486196948221586  6.3064145745624858  8.4155926249208211
  1.2653935195665404  8.0186113048791583 10.2527623384849509
  3.7825172753707079  7.1136126982118189 10.2598656535227022
  4.5906259182863582  8.8208836770616337  8.4131650031548944
  0.4161871196476483  6.1083019359069217 16.0597004105162426
  4.5992306483462659  9.0281004942129783 16.0284359832601275
 -2.0722902218867914 13.8671546494252826  4.7364014463160578
 -1.2579120584528272 10.5352274186095851  6.5729007354698714
 -3.7842852976102690 14.6804378781756295  6.5745005493004491
 -2.9703114851662500 11.3458538195849155  4.7364014469124678
 -4.5935910643901678 11.3458538718089113  1.0449925805606706
 -3.7819512712908994 13.0556390283544115  2.8906970259215541
 -1.2606504042891913 12.1573694658571529  2.8906970289718643
 -0.4490106360551483 13.8671546573586753  1.0449926015493929
 -2.0675860237630928 13.8722114978088236 12.0932169883934435
 -1.2396788138965276 10.5238874104079176 13.9229001657877021
 -3.8043534006237762 14.6914901551259494 13.9043347707679370
 -2.9653681163117209 11.3484696839901140 12.1037436820296485
 -4.5904910890244084 11.3498651301140914  8.4136158997852881
 -3.7795395763504560 13.0565839900475194 10.2596247636292848
 -1.2614900047870046 12.1522896114110726 10.2574846370331763
 -0.4562709589632436 13.8626082035985831  8.4109129997981888
 -4.6445921790145990 11.1384845658589242 16.0510007496721663
 -0.4102819945068585 14.0802369522847410 16.0689711072671706
  8.0129131698313802  8.8245529535661991  4.7364014463160578
 -1.2576848412769308 15.5785026956491155  6.5716518259902239
  6.3005529094089612  9.6357255445937913  6.5728190631440446
 -2.9703114851662504 16.3884555154440008  4.7364014469124678
  5.4916123273280029  6.3032521759498259  1.0449925805606706
  6.3032521204272722  8.0130373324953261  2.8906970259215541
 -1.2606504042891913 17.1999711617162383  2.8906970289718643
 -0.4490106360551483 18.9097563532177624  1.0449926015493929
  8.0207090349939882  8.8263969900480177 12.1011391356340710
 -1.2359526994099610 15.5746493206742684 13.9050394517293352
  6.2780009777489623  9.6406485082143263 13.9016790813674334
 -2.9746216733006996 16.3919451891644066 12.0934362193673319
  5.4942550264071093  6.3083953770219425  8.4176098082544097
  6.3087171005754605  8.0272650081893087 10.2553636878211165
 -1.2631205023094567 17.1985477908383970 10.2574362855469428
 -0.4519914589662745 18.9062028272619393  8.4131845915919232
  5.4493806498057866  6.1036257594285770 16.0602210887892340
 -0.4084448819396232 19.1005299171105882 16.0692236488573101
 -7.5639025541795926 10.0852033694600163  5.6592386508787458
  2.5213008556008072  2.5213008608331631  3.8135642861446053
 -0.0000000171250776  2.5213008613678887  1.9678297513172844
 -0.0000674065312274 10.0862446999821405  7.5040416777178081
 -7.5738494693221217 10.0929421982048684 13.0106258074919392
  2.5177489577945966  2.5228433914586637 11.1769742742439373
 -0.0006352755110328 12.6088850330314681  9.3440678815905702
 -0.0003308164767787 20.1677811495354362 14.9016230772759801
  2.5213008375385781  5.0426016736009309  5.6592386508787458
  2.5213008556008081  7.5639025566922502  3.8135642861446053
 -0.0000000171250776  7.5639025572269736  1.9678297513172844
 -0.0012011599802637 15.1280349983859139  7.5034396061567037
  2.5182141465904033  5.0394302126668995 13.0155541410121511
  2.5207295474015092  7.5644258905720170 11.1831302125000231
 -0.0002826584359638 17.6501971738061201  9.3451830761924857
 -0.0001283032268855 15.1326827132758144 14.8886649268024929
 -2.5213008583205072 10.0852033694600163  5.6592386508787458
 -2.5213008402582764 12.6065042525513338  3.8135642861446053
 -5.0426017129841636 12.6065042530860598  1.9678297513172844
 -5.0425709895356299 10.0855441132227899  7.5032675307047674
 -2.5168648532257585 10.0858490029836663 13.0231638485378891
 -2.5188886356805273 12.6071789713832541 11.1852228502842301
 -5.0421947004911223 12.6052532031224089  9.3464899358823779
 -5.0532494092849207 10.0908887830865091 14.8652556322563107
 -2.5213008583205068 15.1278050653191016  5.6592386508787458
  7.5639025514598952  7.5639025566922502  3.8135642861446053
  5.0426016787340080  7.5639025572269736  1.9678297513172844
  5.0433023020115817  5.0439850499700762  7.5061441427614053
 -2.5195910713590171 15.1325719062460973 13.0149863705517888
  7.5649209660267172  7.5695141208736860 11.1840373375366653
  5.0446494452080843  7.5672527782735619  9.3472735883288447
  5.0424196401284176  5.0427532604011374 14.8859788365336101
 -4.3284224302790903  5.5587599445481253  0.4999999999999999
  5.7567809614390795 10.6013616404072089  0.5000000000000002
  0.7141792655799911 15.6439633362662942  0.4999999999999999
  0.7141792655799911 10.6013616404072089  0.5000000000000002
  4.3284224428400240 14.6116469033828817  0.5000000326209009
 -5.7567809488781450  9.5690452075237982  0.5000000326209009
 -0.7141792530190592  4.5264435116647119  0.5000000326209004
 -0.7141792530190584  9.5690452075237964  0.5000000326209009
  2.9703114739722944 13.8671546494252809  4.7364014463160578
  3.7848963703987164 10.5350957192302896  6.5724711018417388
  1.2579036931048178 14.6794289558040116  6.5737681282117046
  2.0722902106928354 11.3458538195849155  4.7364014469124678
  0.4490106314689160 11.3458538718089130  1.0449925805606706
  1.2606504245681873 13.0556390283544115  2.8906970259215541
  3.7819512915698965 12.1573694658571547  2.8906970289718643
  4.5935910598039378 13.8671546573586753  1.0449926015493929
  2.9729548568470343 13.8640951035048321 12.0952619219668698
  3.8051489985045581 10.5492528830140362 13.8796913148979897
  1.2324339003317972 14.6841492528703608 13.9037141890807696
  2.0531132977716950 11.3457938619003897 12.0824294034712363
  0.4514040339925785 11.3503735136718387  8.4152311050332305
  1.2646646999780675 13.0723826471940683 10.2479677959481066
  3.7765188213229126 12.1497487923221570 10.2527308089707265
  4.5944644459955803 13.8643155307828643  8.4172616848302440
  0.4089824300921523 11.1338317648310010 16.0827451520381004
  4.6392947003114786 14.0684682698834447 16.0625244310195576
 -7.1148919177458749  8.8245529535661973  4.7364014463160578
  3.7844997564275187 15.5758172657757754  6.5747857182742422
 -8.8270531995955945  9.6367954524100377  6.5736462527246120
  2.0722902106928358 16.3884555154440044  4.7364014469124678
  0.4490106314689151 16.3884555676679966  1.0449925805606706
  1.2606504245681880 18.0982407242135004  2.8906970259215541
 -6.3032521001482742  7.1147677699980685  2.8906970289718643
 -5.4916123319142320  8.8245529614995899  1.0449926015493929
 -7.1212294389142921  8.8257072076308560 12.0994652195783949
  3.8009652052878904 15.5639164645437305 13.9081314939903660
 -8.8508190413169832  9.6547657286421700 13.9109830995374821
  2.0700654353651649 16.3856847347268335 12.0927877394302286
  0.4486196948221586 16.3916179662806556  8.4155926249208211
  1.2653935195665398 18.1038146965973290 10.2527623384849509
 -6.3026861163474637  7.1136126982118180 10.2598656535227022
 -5.4945774734318125  8.8208836770616372  8.4131650031548944
  0.4161871196476491 16.1935053276250898 16.0597004105162426
 -5.4859727433719039  9.0281004942129801 16.0284359832601275
 -2.0722902218867900  3.7819512577071128  4.7364014463160578
  8.8272913332653431 10.5352274186095833  6.5729007354698714
 -3.7842852976102659  4.5952344864574588  6.5745005493004491
  7.1148919065519198 11.3458538195849155  4.7364014469124678
  5.4916123273280038 11.3458538718089130  1.0449925805606706
  6.3032521204272713 13.0556390283544079  2.8906970259215541
 -1.2606504042891897  2.0721660741389831  2.8906970289718643
 -0.4490106360551471  3.7819512656405054  1.0449926015493929
 -2.0675860237630883  3.7870081060906542 12.0932169883934435
  8.8455245778216440 10.5238874104079176 13.9229001657877021
 -3.8043534006237754  4.6062867634077804 13.9043347707679370
  7.1198352754064507 11.3484696839901158 12.1037436820296485
  5.4947123026937623 11.3498651301140914  8.4136158997852881
  6.3056638153677156 13.0565839900475176 10.2596247636292848
 -1.2614900047870035  2.0670862196929014 10.2574846370331763
 -0.4562709589632417  3.7774048118804138  8.4109129997981888
  5.4406112127035726 11.1384845658589242 16.0510007496721663
 -0.4102819945068574  3.9950335605665699 16.0689711072671706
 -2.0722902218867896  8.8245529535661973  4.7364014463160578
 -1.2576848412769284  5.4932993039309448  6.5716518259902239
 -3.7846504823092091  9.6357255445937948  6.5728190631440446
 -2.9703114851662487  6.3032521237258310  4.7364014469124678
 -4.5935910643901670  6.3032521759498268  1.0449925805606706
 -3.7819512712908976  8.0130373324953279  2.8906970259215541
 -1.2606504042891897  7.1147677699980685  2.8906970289718643
 -0.4490106360551483  8.8245529614995863  1.0449926015493929
 -2.0644943567241811  8.8263969900480195 12.1011391356340710
 -1.2359526994099588  5.4894459289560995 13.9050394517293352
 -3.8072024139692076  9.6406485082143281 13.9016790813674334
 -2.9746216733006996  6.3067417974462323 12.0934362193673319
 -4.5909483653110605  6.3083953770219416  8.4176098082544097
 -3.7764862911427088  8.0272650081893087 10.2553636878211165
 -1.2631205023094543  7.1133443991202299 10.2574362855469428
 -0.4519914589662743  8.8209994355437651  8.4131845915919232
 -4.6358227419123832  6.1036257594285805 16.0602210887892340
 -0.4084448819396232  9.0153265253924175 16.0692236488573101
  2.5213008375385777 10.0852033694600163  5.6592386508787458
  2.5213008556008072 12.6065042525513320  3.8135642861446053
 -0.0000000171250780 12.6065042530860580  1.9678297513172844
 -0.0000674065312279  0.0010413082639697  7.5040416777178081
  2.5113539223960482 10.0929421982048666 13.0106258074919392
  2.5177489577945962 12.6080467831768335 11.1769742742439373
 -0.0006352755110308  2.5236816413132965  9.3440678815905702
 -0.0003308164767760 10.0825777578172673 14.9016230772759801
  2.5213008375385786 15.1278050653191016  5.6592386508787458
 -7.5639025361173635  7.5639025566922520  3.8135642861446053
 -0.0000000171250782 17.6491059489451452  1.9678297513172844
 -0.0012011599802640  5.0428316066677414  7.5034396061567037
  2.5182141465904024 15.1246336043850711 13.0155541410121511
 -7.5644738443166624  7.5644258905720161 11.1831302125000231
 -0.0002826584359610  7.5649937820879511  9.3451830761924857
 -0.0001283032268846  5.0474793215576446 14.8886649268024929
  7.5639025333976644 10.0852033694600163  5.6592386508787458
 -2.5213008402582759  2.5213008608331644  3.8135642861446053
  5.0426016787340080 12.6065042530860580  1.9678297513172844
  5.0426324021825426 10.0855441132227899  7.5032675307047674
  7.5683385384924131 10.0858490029836663 13.0231638485378891
 -2.5188886356805278  2.5219755796650820 11.1852228502842301
  5.0430086912270484 12.6052532031224089  9.3464899358823779
  5.0319539824332518 10.0908887830865108 14.8652556322563107
 -2.5213008583205059  5.0426016736009318  5.6592386508787458
 -2.5213008402582737  7.5639025566922564  3.8135642861446053
 -5.0426017129841627  7.5639025572269727  1.9678297513172844
 -5.0419010897065890  5.0439850499700771  7.5061441427614053
 -2.5195910713590171  5.0473685145279257 13.0149863705517888
 -2.5202824256914536  7.5695141208736869 11.1840373375366653
 -5.0405539465100873  7.5672527782735610  9.3472735883288447
 -5.0427837515897522  5.0427532604011391 14.8859788365336101
