H  Si
 1.0000000000000000
    16.4061839999999997    0.0000000000000000    0.0000000000000000
     0.0000000000000000   16.4061839999999997    0.0000000000000000
     0.0000000000000000    0.0000000000000000   45.0390020000000035
 H   Si 
  36 216
Selective dynamics
Cartesian
  0.8539587199999999  1.8804052800000000  0.5000000000000000   F   F   F
  9.0570507199999994 10.0834972799999996  0.5000000000000000   F   F   F
 15.5522252800000000  9.0570507199999994  0.5000000000000000   F   F   F
 10.0834972799999996  3.5883227199999999  0.5000000000000000   F   F   F
  4.6147692800000000 14.5257787199999999  0.5000000000000000   F   F   F
  4.6147692800000000  9.0570507199999994  0.5000000000000000   F   F   F
 10.0834972799999996 14.5257787199999999  0.5000000000000000   F   F   F
 15.5522252800000000 14.5257787199999999  0.5000000000000000   F   F   F
  4.6147692800000000  3.5883227199999999  0.5000000000000000   F   F   F
 14.5257787199999999  4.6147692800000000  0.5000000000000000   F   F   F
  1.8804052800000000  6.3226867200000001  0.5000000000000000   F   F   F
 11.7914147200000006  7.3491332800000002  0.5000000000000000   F   F   F
  1.8804052800000000 11.7914147200000006  0.5000000000000000   F   F   F
  7.3491332800000002  6.3226867200000001  0.5000000000000000   F   F   F
 12.8178612800000007 11.7914147200000006  0.5000000000000000   F   F   F
 12.8178612800000007  0.8539587199999999  0.5000000000000000   F   F   F
  7.3491332800000002  0.8539587199999999  0.5000000000000000   F   F   F
  6.3226867200000001 12.8178612800000007  0.5000000000000000   F   F   F
  1.8804052800000000  0.8539587199999999  0.5000000000000000   F   F   F
  9.0570507199999994  4.6147692800000000  0.5000000000000000   F   F   F
 11.7914147200000006  1.8804052800000000  0.5000000000000000   F   F   F
  6.3226867200000001  1.8804052800000000  0.5000000000000000   F   F   F
  3.5883227199999999  4.6147692800000000  0.5000000000000000   F   F   F
  6.3226867200000001  7.3491332800000002  0.5000000000000000   F   F   F
 10.0834972799999996  9.0570507199999994  0.5000000000000000   F   F   F
  0.8539587199999999  7.3491332800000002  0.5000000000000000   F   F   F
  3.5883227199999999 10.0834972799999996  0.5000000000000000   F   F   F
 14.5257787199999999 10.0834972799999996  0.5000000000000000   F   F   F
  7.3491332800000002 11.7914147200000006  0.5000000000000000   F   F   F
 12.8178612800000007  6.3226867200000001  0.5000000000000000   F   F   F
  0.8539587199999999 12.8178612800000007  0.5000000000000000   F   F   F
  9.0570507199999994 15.5522252800000000  0.5000000000000000   F   F   F
 15.5522252800000000  3.5883227199999999  0.5000000000000000   F   F   F
  3.5883227199999999 15.5522252800000000  0.5000000000000000   F   F   F
 14.5257787199999999 15.5522252800000000  0.5000000000000000   F   F   F
 11.7914147200000006 12.8178612800000007  0.5000000000000000   F   F   F
  4.1015459999999999  1.3671819999999999  2.7211419999999999   F   F   F
  0.0000000000000000  2.7343639999999998  1.3539600000000001   F   F   F
  1.3671819999999999  4.1015459999999999  2.7211419999999999   F   F   F
  2.7343639999999998  0.0000000000000000  1.3539600000000001   F   F   F
  4.1015459999999999  4.1015459999999999  5.4555059999999997   F   F   F
  0.0000000000000000  0.0000000000000000  4.0883240000000001   F   F   F
  1.3671819999999999  1.3671819999999999  5.4555059999999997   F   F   F
  2.7343639999999998  2.7343639999999998  4.0883240000000001   F   F   F
  4.0935981300000002  1.3633786400000001  8.1943239400000003   T   T   T
 16.4053701600000004  2.7350689199999998  6.8331805599999997   T   T   T
  1.3701749900000000  4.1091653499999996  8.1956896199999996   T   T   T
  2.7348593700000001  0.0003276200000000  6.8215127999999998   T   T   T
  4.1258563199999996  4.0783703100000004 10.9340925599999998   T   T   T
 16.4017369600000009  0.0016965300000000  9.5597559099999998   T   T   T
  1.3332506300000000  1.3968115500000000 10.9295466799999996   T   T   T
  2.7322111100000002  2.7367061100000001  9.5632088700000004   T   T   T
  4.0262453000000002  1.3143946900000001 13.6793380500000001   T   T   T
 16.3969199600000017  2.7408231500000002 12.3730623899999994   T   T   T
  1.4117169400000000  4.1709276900000001 13.6800025499999993   T   T   T
  2.7251409099999999  0.0013800900000000 12.2253184099999999   T   T   T
  6.3555261600000001  1.8408466699999999 16.3833209599999989   T   T   T
  0.0264705000000000  0.0672095600000000 15.0817245599999996   T   T   T
 15.7029875699999995 14.3783760199999993 15.8685333600000007   T   T   T
  2.6601992000000001  2.7022976900000000 15.0721466700000004   T   T   T
  4.1015459999999999  6.8359100000000002  2.7211419999999999   F   F   F
  0.0000000000000000  8.2030919999999998  1.3539600000000001   F   F   F
  1.3671819999999999  9.5702739999999995  2.7211419999999999   F   F   F
  2.7343639999999998  5.4687279999999996  1.3539600000000001   F   F   F
  4.1015459999999999  9.5702739999999995  5.4555059999999997   F   F   F
  0.0000000000000000  5.4687279999999996  4.0883240000000001   F   F   F
  1.3671819999999999  6.8359100000000002  5.4555059999999997   F   F   F
  2.7343639999999998  8.2030919999999998  4.0883240000000001   F   F   F
  4.0942988199999997  6.8309845400000002  8.1942582099999992   T   T   T
 16.4052111600000003  8.2031264099999994  6.8335013099999999   T   T   T
  1.3710044500000000  9.5779511999999993  8.1944651900000007   T   T   T
  2.7331953599999999  5.4681670200000001  6.8216075399999996   T   T   T
  4.1241523000000004  9.5480093299999993 10.9302953499999997   T   T   T
 16.4025889300000003  5.4718651600000001  9.5641382299999993   T   T   T
  1.3393866699999999  6.8643640399999999 10.9338764299999998   T   T   T
  2.7312645799999999  8.2043944300000007  9.5619174299999994   T   T   T
  4.0341478000000004  6.7916793300000000 13.6819213800000004   T   T   T
 16.4031526200000002  8.2091959600000006 12.3766837499999998   T   T   T
  1.4161747400000000  9.6415467800000005 13.6820880500000008   T   T   T
  2.7336702100000001  5.4722118300000000 12.2342187899999999   T   T   T
  6.3695841499999997  7.3052560399999997 16.4537076499999984   T   T   T
  0.0259662300000000  5.5351225499999996 15.0792312499999994   T   T   T
 15.6971140499999997  3.4459078500000002 15.8682335900000009   T   T   T
  2.6720399800000001  8.1846486100000000 15.0761306200000007   T   T   T
  4.1015459999999999 12.3046380000000006  2.7211419999999999   F   F   F
  0.0000000000000000 13.6718200000000003  1.3539600000000001   F   F   F
  1.3671819999999999 15.0390020000000000  2.7211419999999999   F   F   F
  2.7343639999999998 10.9374559999999992  1.3539600000000001   F   F   F
  4.1015459999999999 15.0390020000000000  5.4555059999999997   F   F   F
  0.0000000000000000 10.9374559999999992  4.0883240000000001   F   F   F
  1.3671819999999999 12.3046380000000006  5.4555059999999997   F   F   F
  2.7343639999999998 13.6718200000000003  4.0883240000000001   F   F   F
  4.0928817600000000 12.3005286399999996  8.1910754099999998   T   T   T
 16.4054752199999996 13.6717057299999993  6.8320274300000001   T   T   T
  1.3697338400000001 15.0481155900000001  8.1923880100000002   T   T   T
  2.7330718699999998 10.9376545600000004  6.8200792799999999   T   T   T
  4.1221917100000001 15.0177709099999994 10.9279242900000000   T   T   T
 16.4044602899999994 10.9400328800000004  9.5617662699999997   T   T   T
  1.3399468500000000 12.3323939700000000 10.9335347800000005   T   T   T
  2.7303066899999999 13.6737962199999998  9.5584344399999992   T   T   T
  4.0374053099999996 12.2574542799999993 13.6853596399999997   T   T   T
 16.4038309300000016 13.6760056599999995 12.3788749100000004   T   T   T
  1.4172974300000001 15.1080735100000005 13.6875250600000005   T   T   T
  2.7355476900000002 10.9414093200000000 12.2328559400000003   T   T   T
  6.3786135100000001 12.7607278300000004 16.4656905400000007   T   T   T
  0.0241595800000000 11.0011169199999994 15.0784073200000002   T   T   T
 15.7033057700000001  8.9115688800000008 15.8696184799999997   T   T   T
  2.6728735100000001 13.6454982400000002 15.0801301100000007   T   T   T
  9.5702739999999995  1.3671819999999999  2.7211419999999999   F   F   F
  5.4687279999999996  2.7343639999999998  1.3539600000000001   F   F   F
  6.8359100000000002  4.1015459999999999  2.7211419999999999   F   F   F
  8.2030919999999998  0.0000000000000000  1.3539600000000001   F   F   F
  9.5702739999999995  4.1015459999999999  5.4555059999999997   F   F   F
  5.4687279999999996  0.0000000000000000  4.0883240000000001   F   F   F
  6.8359100000000002  1.3671819999999999  5.4555059999999997   F   F   F
  8.2030919999999998  2.7343639999999998  4.0883240000000001   F   F   F
  9.5622498000000000  1.3629624600000001  8.1947102199999993   T   T   T
  5.4681339600000003  2.7339472300000001  6.8328611300000004   T   T   T
  6.8411535900000002  4.1077944300000002  8.1944193999999992   T   T   T
  8.2028460600000006  0.0003818900000000  6.8218993399999999   T   T   T
  9.5913976900000009  4.0787927200000000 10.9314215800000003   T   T   T
  5.4667105100000004  0.0031140300000000  9.5596352000000007   T   T   T
  6.8056021600000003  1.3960963300000000 10.9320958800000003   T   T   T
  8.2003022199999993  2.7351904600000001  9.5619246800000006   T   T   T
  9.5032576899999999  1.3210953500000000 13.6754541799999991   T   T   T
  5.4620308900000003  2.7389855100000000 12.3786179799999996   T   T   T
  6.8808521400000000  4.1792484700000001 13.6809339300000001   T   T   T
  8.2004513400000008  0.0003602700000000 12.2280467599999998   T   T   T
 11.8423918100000005  1.8255003400000001 16.4489778400000013   T   T   T
  5.4836640699999997  0.0474400000000000 15.0669009799999998   T   T   T
  4.7598988200000001 14.3682363399999993 15.8920792500000001   T   T   T
  8.1506606700000006  2.7191735299999999 15.0670009199999999   T   T   T
  9.5702739999999995  6.8359100000000002  2.7211419999999999   F   F   F
  5.4687279999999996  8.2030919999999998  1.3539600000000001   F   F   F
  6.8359100000000002  9.5702739999999995  2.7211419999999999   F   F   F
  8.2030919999999998  5.4687279999999996  1.3539600000000001   F   F   F
  9.5702739999999995  9.5702739999999995  5.4555059999999997   F   F   F
  5.4687279999999996  5.4687279999999996  4.0883240000000001   F   F   F
  6.8359100000000002  6.8359100000000002  5.4555059999999997   F   F   F
  8.2030919999999998  8.2030919999999998  4.0883240000000001   F   F   F
  9.5627363299999999  6.8318214900000003  8.1936586400000007   T   T   T
  5.4688863000000003  8.2029817299999994  6.8324566200000003   T   T   T
  6.8399370199999998  9.5789388399999993  8.1916981599999996   T   T   T
  8.2028026799999996  5.4694716400000001  6.8216520899999997   T   T   T
  9.5924630000000004  9.5450672700000005 10.9316513099999995   T   T   T
  5.4688680999999999  5.4704626300000001  9.5629672800000005   T   T   T
  6.8091360700000001  6.8681768300000003 10.9305328199999998   T   T   T
  8.2008056699999994  8.2066715000000006  9.5575135600000003   T   T   T
  9.5001847900000005  6.7884792899999997 13.6880025700000001   T   T   T
  5.4633377899999997  8.2100431999999994 12.3726910300000004   T   T   T
  6.8840613399999997  9.6392879400000009 13.6842458699999998   T   T   T
  8.2011734500000006  5.4757683500000001 12.2296027499999997   T   T   T
 11.8416104000000004  7.3077502200000000 16.4394275800000003   T   T   T
  5.4965147800000000  5.5425547699999997 15.0779445800000005   T   T   T
  4.7460028799999998  3.4516360300000000 15.8517875900000007   T   T   T
  8.1352737699999995  8.1776088799999993 15.0810800999999994   T   T   T
  9.5702739999999995 12.3046380000000006  2.7211419999999999   F   F   F
  5.4687279999999996 13.6718200000000003  1.3539600000000001   F   F   F
  6.8359100000000002 15.0390020000000000  2.7211419999999999   F   F   F
  8.2030919999999998 10.9374559999999992  1.3539600000000001   F   F   F
  9.5702739999999995 15.0390020000000000  5.4555059999999997   F   F   F
  5.4687279999999996 10.9374559999999992  4.0883240000000001   F   F   F
  6.8359100000000002 12.3046380000000006  5.4555059999999997   F   F   F
  8.2030919999999998 13.6718200000000003  4.0883240000000001   F   F   F
  9.5620997100000000 12.3011096799999997  8.1933484599999993   T   T   T
  5.4689883200000002 13.6734088099999997  6.8326924599999996   T   T   T
  6.8406313499999998 15.0473834100000001  8.1939394700000001   T   T   T
  8.2037381099999998 10.9380647199999999  6.8206590900000004   T   T   T
  9.5959863900000002 15.0174771200000006 10.9274489900000003   T   T   T
  5.4650905600000002 10.9387113800000009  9.5570602000000004   T   T   T
  6.8070817600000000 12.3328938000000008 10.9239732899999993   T   T   T
  8.2024593899999996 13.6753953799999994  9.5585541999999997   T   T   T
  9.4997211499999992 12.2578913600000003 13.6779545200000001   T   T   T
  5.4614529500000000 13.6745083699999999 12.3672417100000001   T   T   T
  6.8836050100000001 15.0981985600000002 13.6757676900000007   T   T   T
  8.1978665999999993 10.9389874000000002 12.2264650800000005   T   T   T
 11.8350543600000009 12.7756065400000001 16.4344114599999997   T   T   T
  5.4999964099999996 11.0061557400000005 15.0817429399999998   T   T   T
  4.7640087099999997  8.9156240800000006 15.8651724200000004   T   T   T
  8.1302687500000008 13.6395210799999997 15.0767593600000005   T   T   T
 15.0390020000000000  1.3671819999999999  2.7211419999999999   F   F   F
 10.9374559999999992  2.7343639999999998  1.3539600000000001   F   F   F
 12.3046380000000006  4.1015459999999999  2.7211419999999999   F   F   F
 13.6718200000000003  0.0000000000000000  1.3539600000000001   F   F   F
 15.0390020000000000  4.1015459999999999  5.4555059999999997   F   F   F
 10.9374559999999992  0.0000000000000000  4.0883240000000001   F   F   F
 12.3046380000000006  1.3671819999999999  5.4555059999999997   F   F   F
 13.6718200000000003  2.7343639999999998  4.0883240000000001   F   F   F
 15.0305637599999997  1.3627320300000001  8.1931171200000001   T   T   T
 10.9368286300000008  2.7342732900000000  6.8330029899999998   T   T   T
 12.3078635100000007  4.1110003900000001  8.1932348400000006   T   T   T
 13.6709813499999999  0.0004289200000000  6.8208791000000000   T   T   T
 15.0562039500000004  4.0804259500000004 10.9331602100000005   T   T   T
 10.9373257600000002  0.0035891600000000  9.5585333000000006   T   T   T
 12.2770128700000001  1.3965460300000001 10.9294118600000001   T   T   T
 13.6689607199999994  2.7373082000000002  9.5585828700000004   T   T   T
 14.9710523400000000  1.3187026500000001 13.6847263399999992   T   T   T
 10.9341673700000008  2.7411338999999999 12.3721185400000007   T   T   T
 12.3502034900000002  4.1695233299999996 13.6879975700000003   T   T   T
 13.6709708699999997  0.0036894800000000 12.2296251199999997   T   T   T
  0.8986888600000000  1.8354345599999999 16.4499206999999998   T   T   T
 10.9607588600000003  0.0660949300000000 15.0731690799999996   T   T   T
 10.2212446999999997 14.3830165399999998 15.8613006799999994   T   T   T
 13.6050618199999995  2.7085751299999998 15.0801696300000003   T   T   T
 15.0390020000000000  6.8359100000000002  2.7211419999999999   F   F   F
 10.9374559999999992  8.2030919999999998  1.3539600000000001   F   F   F
 12.3046380000000006  9.5702739999999995  2.7211419999999999   F   F   F
 13.6718200000000003  5.4687279999999996  1.3539600000000001   F   F   F
 15.0390020000000000  9.5702739999999995  5.4555059999999997   F   F   F
 10.9374559999999992  5.4687279999999996  4.0883240000000001   F   F   F
 12.3046380000000006  6.8359100000000002  5.4555059999999997   F   F   F
 13.6718200000000003  8.2030919999999998  4.0883240000000001   F   F   F
 15.0294281299999994  6.8324604100000004  8.1962514199999994   T   T   T
 10.9365023899999994  8.2038396700000007  6.8329461800000004   T   T   T
 12.3078639100000000  9.5781422599999999  8.1956423500000000   T   T   T
 13.6722561299999992  5.4687226300000003  6.8208404700000003   T   T   T
 15.0630583900000001  9.5482090599999996 10.9325320900000005   T   T   T
 10.9345437400000005  5.4718476899999997  9.5621657800000008   T   T   T
 12.2737268499999992  6.8655039899999997 10.9344222999999996   T   T   T
 13.6686070500000003  8.2059696700000000  9.5645484599999993   T   T   T
 14.9718955000000005  6.7870495100000001 13.6843442300000007   T   T   T
 10.9308781300000000  8.2077274800000009 12.3778643800000001   T   T   T
 12.3564176700000008  9.6391719400000007 13.6800471100000003   T   T   T
 13.6652891600000004  5.4722168000000000 12.2356068899999997   T   T   T
  0.9087778600000000  7.3031851600000000 16.4359757699999989   T   T   T
 10.9625628400000004  5.5369285000000001 15.0838784100000005   T   T   T
 10.2348499600000000  3.4438651500000002 15.8801222600000003   T   T   T
 13.6111585799999997  8.1808868399999994 15.0772385199999999   T   T   T
 15.0390020000000000 12.3046380000000006  2.7211419999999999   F   F   F
 10.9374559999999992 13.6718200000000003  1.3539600000000001   F   F   F
 12.3046380000000006 15.0390020000000000  2.7211419999999999   F   F   F
 13.6718200000000003 10.9374559999999992  1.3539600000000001   F   F   F
 15.0390020000000000 15.0390020000000000  5.4555059999999997   F   F   F
 10.9374559999999992 10.9374559999999992  4.0883240000000001   F   F   F
 12.3046380000000006 12.3046380000000006  5.4555059999999997   F   F   F
 13.6718200000000003 13.6718200000000003  4.0883240000000001   F   F   F
 15.0309004300000009 12.3009628600000003  8.1949469700000002   T   T   T
 10.9373086399999995 13.6725057200000002  6.8330780899999999   T   T   T
 12.3095215899999992 15.0467927400000008  8.1938138499999997   T   T   T
 13.6709473199999998 10.9376504499999996  6.8220576700000004   T   T   T
 15.0637483700000008 15.0139321100000007 10.9331685899999993   T   T   T
 10.9334027999999996 10.9400541400000009  9.5621301299999999   T   T   T
 12.2753643300000004 12.3330845500000006 10.9312267399999996   T   T   T
 13.6688610900000000 13.6737447799999998  9.5622452100000004   T   T   T
 14.9702925100000002 12.2565366900000008 13.6838081200000001   T   T   T
 10.9332782500000008 13.6781444400000005 12.3717764700000004   T   T   T
 12.3534979200000006 15.1080465600000000 13.6800811600000003   T   T   T
 13.6701363199999992 10.9417614000000007 12.2294605599999997   T   T   T
  0.9045374600000000 12.7648136399999999 16.4400344700000005   T   T   T
 10.9640958099999999 11.0050536200000000 15.0692051700000000   T   T   T
 10.2287231500000004  8.9134651900000001 15.8617857000000004   T   T   T
 13.6095708799999997 13.6511505300000007 15.0777850699999991   T   T   T
Cartesian
  0.0000000000000000  0.0000000000000000  0.0000000000000000
  0.0000000000000000  0.0000000000000000  0.0000000000000000
  0.0000000000000000  0.0000000000000000  0.0000000000000000
  0.0000000000000000  0.0000000000000000  0.0000000000000000
  0.0000000000000000  0.0000000000000000  0.0000000000000000
  0.0000000000000000  0.0000000000000000  0.0000000000000000
  0.0000000000000000  0.0000000000000000  0.0000000000000000
  0.0000000000000000  0.0000000000000000  0.0000000000000000
  0.0000000000000000  0.0000000000000000  0.0000000000000000
  0.0000000000000000  0.0000000000000000  0.0000000000000000
  0.0000000000000000  0.0000000000000000  0.0000000000000000
  0.0000000000000000  0.0000000000000000  0.0000000000000000
  0.0000000000000000  0.0000000000000000  0.0000000000000000
  0.0000000000000000  0.0000000000000000  0.0000000000000000
  0.0000000000000000  0.0000000000000000  0.0000000000000000
  0.0000000000000000  0.0000000000000000  0.0000000000000000
  0.0000000000000000  0.0000000000000000  0.0000000000000000
  0.0000000000000000  0.0000000000000000  0.0000000000000000
  0.0000000000000000  0.0000000000000000  0.0000000000000000
  0.0000000000000000  0.0000000000000000  0.0000000000000000
  0.0000000000000000  0.0000000000000000  0.0000000000000000
  0.0000000000000000  0.0000000000000000  0.0000000000000000
  0.0000000000000000  0.0000000000000000  0.0000000000000000
  0.0000000000000000  0.0000000000000000  0.0000000000000000
  0.0000000000000000  0.0000000000000000  0.0000000000000000
  0.0000000000000000  0.0000000000000000  0.0000000000000000
  0.0000000000000000  0.0000000000000000  0.0000000000000000
  0.0000000000000000  0.0000000000000000  0.0000000000000000
  0.0000000000000000  0.0000000000000000  0.0000000000000000
  0.0000000000000000  0.0000000000000000  0.0000000000000000
  0.0000000000000000  0.0000000000000000  0.0000000000000000
  0.0000000000000000  0.0000000000000000  0.0000000000000000
  0.0000000000000000  0.0000000000000000  0.0000000000000000
  0.0000000000000000  0.0000000000000000  0.0000000000000000
  0.0000000000000000  0.0000000000000000  0.0000000000000000
  0.0000000000000000  0.0000000000000000  0.0000000000000000
  0.0000000000000000  0.0000000000000000  0.0000000000000000
  0.0000000000000000  0.0000000000000000  0.0000000000000000
  0.0000000000000000  0.0000000000000000  0.0000000000000000
  0.0000000000000000  0.0000000000000000  0.0000000000000000
  0.0000000000000000  0.0000000000000000  0.0000000000000000
  0.0000000000000000  0.0000000000000000  0.0000000000000000
  0.0000000000000000  0.0000000000000000  0.0000000000000000
  0.0000000000000000  0.0000000000000000  0.0000000000000000
  0.0000000000000000  0.0000000000000000  0.0000000000000000
  0.0000000000000000  0.0000000000000000  0.0000000000000000
  0.0000000000000000  0.0000000000000000  0.0000000000000000
  0.0000000000000000  0.0000000000000000  0.0000000000000000
  0.0000000000000000  0.0000000000000000  0.0000000000000000
  0.0000000000000000  0.0000000000000000  0.0000000000000000
  0.0000000000000000  0.0000000000000000  0.0000000000000000
  0.0000000000000000  0.0000000000000000  0.0000000000000000
  0.0000000000000000  0.0000000000000000  0.0000000000000000
  0.0000000000000000  0.0000000000000000  0.0000000000000000
  0.0000000000000000  0.0000000000000000  0.0000000000000000
  0.0000000000000000  0.0000000000000000  0.0000000000000000
  0.0000000000000000  0.0000000000000000  0.0000000000000000
  0.0000000000000000  0.0000000000000000  0.0000000000000000
  0.0000000000000000  0.0000000000000000  0.0000000000000000
  0.0000000000000000  0.0000000000000000  0.0000000000000000
  0.0000000000000000  0.0000000000000000  0.0000000000000000
  0.0000000000000000  0.0000000000000000  0.0000000000000000
  0.0000000000000000  0.0000000000000000  0.0000000000000000
  0.0000000000000000  0.0000000000000000  0.0000000000000000
  0.0000000000000000  0.0000000000000000  0.0000000000000000
  0.0000000000000000  0.0000000000000000  0.0000000000000000
  0.0000000000000000  0.0000000000000000  0.0000000000000000
  0.0000000000000000  0.0000000000000000  0.0000000000000000
  0.0000000000000000  0.0000000000000000  0.0000000000000000
  0.0000000000000000  0.0000000000000000  0.0000000000000000
  0.0000000000000000  0.0000000000000000  0.0000000000000000
  0.0000000000000000  0.0000000000000000  0.0000000000000000
  0.0000000000000000  0.0000000000000000  0.0000000000000000
  0.0000000000000000  0.0000000000000000  0.0000000000000000
  0.0000000000000000  0.0000000000000000  0.0000000000000000
  0.0000000000000000  0.0000000000000000  0.0000000000000000
  0.0000000000000000  0.0000000000000000  0.0000000000000000
  0.0000000000000000  0.0000000000000000  0.0000000000000000
  0.0000000000000000  0.0000000000000000  0.0000000000000000
  0.0000000000000000  0.0000000000000000  0.0000000000000000
  0.0000000000000000  0.0000000000000000  0.0000000000000000
  0.0000000000000000  0.0000000000000000  0.0000000000000000
  0.0000000000000000  0.0000000000000000  0.0000000000000000
  0.0000000000000000  0.0000000000000000  0.0000000000000000
  0.0000000000000000  0.0000000000000000  0.0000000000000000
  0.0000000000000000  0.0000000000000000  0.0000000000000000
  0.0000000000000000  0.0000000000000000  0.0000000000000000
  0.0000000000000000  0.0000000000000000  0.0000000000000000
  0.0000000000000000  0.0000000000000000  0.0000000000000000
  0.0000000000000000  0.0000000000000000  0.0000000000000000
  0.0000000000000000  0.0000000000000000  0.0000000000000000
  0.0000000000000000  0.0000000000000000  0.0000000000000000
  0.0000000000000000  0.0000000000000000  0.0000000000000000
  0.0000000000000000  0.0000000000000000  0.0000000000000000
  0.0000000000000000  0.0000000000000000  0.0000000000000000
  0.0000000000000000  0.0000000000000000  0.0000000000000000
  0.0000000000000000  0.0000000000000000  0.0000000000000000
  0.0000000000000000  0.0000000000000000  0.0000000000000000
  0.0000000000000000  0.0000000000000000  0.0000000000000000
  0.0000000000000000  0.0000000000000000  0.0000000000000000
  0.0000000000000000  0.0000000000000000  0.0000000000000000
  0.0000000000000000  0.0000000000000000  0.0000000000000000
  0.0000000000000000  0.0000000000000000  0.0000000000000000
  0.0000000000000000  0.0000000000000000  0.0000000000000000
  0.0000000000000000  0.0000000000000000  0.0000000000000000
  0.0000000000000000  0.0000000000000000  0.0000000000000000
  0.0000000000000000  0.0000000000000000  0.0000000000000000
  0.0000000000000000  0.0000000000000000  0.0000000000000000
  0.0000000000000000  0.0000000000000000  0.0000000000000000
  0.0000000000000000  0.0000000000000000  0.0000000000000000
  0.0000000000000000  0.0000000000000000  0.0000000000000000
  0.0000000000000000  0.0000000000000000  0.0000000000000000
  0.0000000000000000  0.0000000000000000  0.0000000000000000
  0.0000000000000000  0.0000000000000000  0.0000000000000000
  0.0000000000000000  0.0000000000000000  0.0000000000000000
  0.0000000000000000  0.0000000000000000  0.0000000000000000
  0.0000000000000000  0.0000000000000000  0.0000000000000000
  0.0000000000000000  0.0000000000000000  0.0000000000000000
  0.0000000000000000  0.0000000000000000  0.0000000000000000
  0.0000000000000000  0.0000000000000000  0.0000000000000000
  0.0000000000000000  0.0000000000000000  0.0000000000000000
  0.0000000000000000  0.0000000000000000  0.0000000000000000
  0.0000000000000000  0.0000000000000000  0.0000000000000000
  0.0000000000000000  0.0000000000000000  0.0000000000000000
  0.0000000000000000  0.0000000000000000  0.0000000000000000
  0.0000000000000000  0.0000000000000000  0.0000000000000000
  0.0000000000000000  0.0000000000000000  0.0000000000000000
  0.0000000000000000  0.0000000000000000  0.0000000000000000
  0.0000000000000000  0.0000000000000000  0.0000000000000000
  0.0000000000000000  0.0000000000000000  0.0000000000000000
  0.0000000000000000  0.0000000000000000  0.0000000000000000
  0.0000000000000000  0.0000000000000000  0.0000000000000000
  0.0000000000000000  0.0000000000000000  0.0000000000000000
  0.0000000000000000  0.0000000000000000  0.0000000000000000
  0.0000000000000000  0.0000000000000000  0.0000000000000000
  0.0000000000000000  0.0000000000000000  0.0000000000000000
  0.0000000000000000  0.0000000000000000  0.0000000000000000
  0.0000000000000000  0.0000000000000000  0.0000000000000000
  0.0000000000000000  0.0000000000000000  0.0000000000000000
  0.0000000000000000  0.0000000000000000  0.0000000000000000
  0.0000000000000000  0.0000000000000000  0.0000000000000000
  0.0000000000000000  0.0000000000000000  0.0000000000000000
  0.0000000000000000  0.0000000000000000  0.0000000000000000
  0.0000000000000000  0.0000000000000000  0.0000000000000000
  0.0000000000000000  0.0000000000000000  0.0000000000000000
  0.0000000000000000  0.0000000000000000  0.0000000000000000
  0.0000000000000000  0.0000000000000000  0.0000000000000000
  0.0000000000000000  0.0000000000000000  0.0000000000000000
  0.0000000000000000  0.0000000000000000  0.0000000000000000
  0.0000000000000000  0.0000000000000000  0.0000000000000000
  0.0000000000000000  0.0000000000000000  0.0000000000000000
  0.0000000000000000  0.0000000000000000  0.0000000000000000
  0.0000000000000000  0.0000000000000000  0.0000000000000000
  0.0000000000000000  0.0000000000000000  0.0000000000000000
  0.0000000000000000  0.0000000000000000  0.0000000000000000
  0.0000000000000000  0.0000000000000000  0.0000000000000000
  0.0000000000000000  0.0000000000000000  0.0000000000000000
  0.0000000000000000  0.0000000000000000  0.0000000000000000
  0.0000000000000000  0.0000000000000000  0.0000000000000000
  0.0000000000000000  0.0000000000000000  0.0000000000000000
  0.0000000000000000  0.0000000000000000  0.0000000000000000
  0.0000000000000000  0.0000000000000000  0.0000000000000000
  0.0000000000000000  0.0000000000000000  0.0000000000000000
  0.0000000000000000  0.0000000000000000  0.0000000000000000
  0.0000000000000000  0.0000000000000000  0.0000000000000000
  0.0000000000000000  0.0000000000000000  0.0000000000000000
  0.0000000000000000  0.0000000000000000  0.0000000000000000
  0.0000000000000000  0.0000000000000000  0.0000000000000000
  0.0000000000000000  0.0000000000000000  0.0000000000000000
  0.0000000000000000  0.0000000000000000  0.0000000000000000
  0.0000000000000000  0.0000000000000000  0.0000000000000000
  0.0000000000000000  0.0000000000000000  0.0000000000000000
  0.0000000000000000  0.0000000000000000  0.0000000000000000
  0.0000000000000000  0.0000000000000000  0.0000000000000000
  0.0000000000000000  0.0000000000000000  0.0000000000000000
  0.0000000000000000  0.0000000000000000  0.0000000000000000
  0.0000000000000000  0.0000000000000000  0.0000000000000000
  0.0000000000000000  0.0000000000000000  0.0000000000000000
  0.0000000000000000  0.0000000000000000  0.0000000000000000
  0.0000000000000000  0.0000000000000000  0.0000000000000000
  0.0000000000000000  0.0000000000000000  0.0000000000000000
  0.0000000000000000  0.0000000000000000  0.0000000000000000
  0.0000000000000000  0.0000000000000000  0.0000000000000000
  0.0000000000000000  0.0000000000000000  0.0000000000000000
  0.0000000000000000  0.0000000000000000  0.0000000000000000
  0.0000000000000000  0.0000000000000000  0.0000000000000000
  0.0000000000000000  0.0000000000000000  0.0000000000000000
  0.0000000000000000  0.0000000000000000  0.0000000000000000
  0.0000000000000000  0.0000000000000000  0.0000000000000000
  0.0000000000000000  0.0000000000000000  0.0000000000000000
  0.0000000000000000  0.0000000000000000  0.0000000000000000
  0.0000000000000000  0.0000000000000000  0.0000000000000000
  0.0000000000000000  0.0000000000000000  0.0000000000000000
  0.0000000000000000  0.0000000000000000  0.0000000000000000
  0.0000000000000000  0.0000000000000000  0.0000000000000000
  0.0000000000000000  0.0000000000000000  0.0000000000000000
  0.0000000000000000  0.0000000000000000  0.0000000000000000
  0.0000000000000000  0.0000000000000000  0.0000000000000000
  0.0000000000000000  0.0000000000000000  0.0000000000000000
  0.0000000000000000  0.0000000000000000  0.0000000000000000
  0.0000000000000000  0.0000000000000000  0.0000000000000000
  0.0000000000000000  0.0000000000000000  0.0000000000000000
  0.0000000000000000  0.0000000000000000  0.0000000000000000
  0.0000000000000000  0.0000000000000000  0.0000000000000000
  0.0000000000000000  0.0000000000000000  0.0000000000000000
  0.0000000000000000  0.0000000000000000  0.0000000000000000
  0.0000000000000000  0.0000000000000000  0.0000000000000000
  0.0000000000000000  0.0000000000000000  0.0000000000000000
  0.0000000000000000  0.0000000000000000  0.0000000000000000
  0.0000000000000000  0.0000000000000000  0.0000000000000000
  0.0000000000000000  0.0000000000000000  0.0000000000000000
  0.0000000000000000  0.0000000000000000  0.0000000000000000
  0.0000000000000000  0.0000000000000000  0.0000000000000000
  0.0000000000000000  0.0000000000000000  0.0000000000000000
  0.0000000000000000  0.0000000000000000  0.0000000000000000
  0.0000000000000000  0.0000000000000000  0.0000000000000000
  0.0000000000000000  0.0000000000000000  0.0000000000000000
  0.0000000000000000  0.0000000000000000  0.0000000000000000
  0.0000000000000000  0.0000000000000000  0.0000000000000000
  0.0000000000000000  0.0000000000000000  0.0000000000000000
  0.0000000000000000  0.0000000000000000  0.0000000000000000
  0.0000000000000000  0.0000000000000000  0.0000000000000000
  0.0000000000000000  0.0000000000000000  0.0000000000000000
  0.0000000000000000  0.0000000000000000  0.0000000000000000
  0.0000000000000000  0.0000000000000000  0.0000000000000000
  0.0000000000000000  0.0000000000000000  0.0000000000000000
  0.0000000000000000  0.0000000000000000  0.0000000000000000
  0.0000000000000000  0.0000000000000000  0.0000000000000000
  0.0000000000000000  0.0000000000000000  0.0000000000000000
  0.0000000000000000  0.0000000000000000  0.0000000000000000
  0.0000000000000000  0.0000000000000000  0.0000000000000000
  0.0000000000000000  0.0000000000000000  0.0000000000000000
  0.0000000000000000  0.0000000000000000  0.0000000000000000
  0.0000000000000000  0.0000000000000000  0.0000000000000000
  0.0000000000000000  0.0000000000000000  0.0000000000000000
  0.0000000000000000  0.0000000000000000  0.0000000000000000
  0.0000000000000000  0.0000000000000000  0.0000000000000000
  0.0000000000000000  0.0000000000000000  0.0000000000000000
  0.0000000000000000  0.0000000000000000  0.0000000000000000
  0.0000000000000000  0.0000000000000000  0.0000000000000000
  0.0000000000000000  0.0000000000000000  0.0000000000000000
  0.0000000000000000  0.0000000000000000  0.0000000000000000
  0.0000000000000000  0.0000000000000000  0.0000000000000000
  0.0000000000000000  0.0000000000000000  0.0000000000000000
  0.0000000000000000  0.0000000000000000  0.0000000000000000
  0.0000000000000000  0.0000000000000000  0.0000000000000000
  0.0000000000000000  0.0000000000000000  0.0000000000000000
  0.0000000000000000  0.0000000000000000  0.0000000000000000
  0.0000000000000000  0.0000000000000000  0.0000000000000000
  0.0000000000000000  0.0000000000000000  0.0000000000000000
  0.0000000000000000  0.0000000000000000  0.0000000000000000
  0.0000000000000000  0.0000000000000000  0.0000000000000000
